poscar file by
1.000000
56.801037 0.000000 0.000000
0.000000 56.801037 0.000000
0.000000 0.000000 56.801037
Fe 
4975 
Selective dynamics
Cartesian
21.300390 18.460339 7.100130   T T T
24.140442 18.460339 7.100130   T T T
26.980494 18.460339 7.100130   T T T
29.820545 18.460339 7.100130   T T T
32.660595 18.460339 7.100130   T T T
35.500648 18.460339 7.100130   T T T
18.460339 21.300390 7.100130   T T T
21.300390 21.300390 7.100130   T T T
24.140442 21.300390 7.100130   T T T
26.980494 21.300390 7.100130   T T T
29.820545 21.300390 7.100130   T T T
32.660595 21.300390 7.100130   T T T
35.500648 21.300390 7.100130   T T T
38.340698 21.300390 7.100130   T T T
18.460339 24.140442 7.100130   T T T
21.300390 24.140442 7.100130   T T T
24.140442 24.140442 7.100130   T T T
26.980494 24.140442 7.100130   T T T
29.820545 24.140442 7.100130   T T T
32.660595 24.140442 7.100130   T T T
35.500648 24.140442 7.100130   T T T
38.340698 24.140442 7.100130   T T T
18.460339 26.980494 7.100130   T T T
21.300390 26.980494 7.100130   T T T
24.140442 26.980494 7.100130   T T T
26.980494 26.980494 7.100130   T T T
29.820545 26.980494 7.100130   T T T
32.660595 26.980494 7.100130   T T T
35.500648 26.980494 7.100130   T T T
38.340698 26.980494 7.100130   T T T
18.460339 29.820545 7.100130   T T T
21.300390 29.820545 7.100130   T T T
24.140442 29.820545 7.100130   T T T
26.980494 29.820545 7.100130   T T T
29.820545 29.820545 7.100130   T T T
32.660595 29.820545 7.100130   T T T
35.500648 29.820545 7.100130   T T T
38.340698 29.820545 7.100130   T T T
18.460339 32.660595 7.100130   T T T
21.300390 32.660595 7.100130   T T T
24.140442 32.660595 7.100130   T T T
26.980494 32.660595 7.100130   T T T
29.820545 32.660595 7.100130   T T T
32.660595 32.660595 7.100130   T T T
35.500648 32.660595 7.100130   T T T
38.340698 32.660595 7.100130   T T T
18.460339 35.500648 7.100130   T T T
21.300390 35.500648 7.100130   T T T
24.140442 35.500648 7.100130   T T T
26.980494 35.500648 7.100130   T T T
29.820545 35.500648 7.100130   T T T
32.660595 35.500648 7.100130   T T T
35.500648 35.500648 7.100130   T T T
38.340698 35.500648 7.100130   T T T
21.300390 38.340698 7.100130   T T T
24.140442 38.340698 7.100130   T T T
26.980494 38.340698 7.100130   T T T
29.820545 38.340698 7.100130   T T T
32.660595 38.340698 7.100130   T T T
35.500648 38.340698 7.100130   T T T
21.300390 15.620285 9.940182   T T T
24.140442 15.620285 9.940182   T T T
26.980494 15.620285 9.940182   T T T
29.820545 15.620285 9.940182   T T T
32.660595 15.620285 9.940182   T T T
35.500648 15.620285 9.940182   T T T
18.460339 18.460339 9.940182   T T T
19.880363 17.040312 8.520155   T T T
21.300390 18.460339 9.940182   T T T
22.720415 17.040312 8.520155   T T T
24.140442 18.460339 9.940182   T T T
25.560467 17.040312 8.520155   T T T
26.980494 18.460339 9.940182   T T T
28.400518 17.040312 8.520155   T T T
29.820545 18.460339 9.940182   T T T
31.240570 17.040312 8.520155   T T T
32.660595 18.460339 9.940182   T T T
34.080624 17.040312 8.520155   T T T
35.500648 18.460339 9.940182   T T T
36.920673 17.040312 8.520155   T T T
38.340698 18.460339 9.940182   T T T
15.620285 21.300390 9.940182   T T T
17.040312 19.880363 8.520155   T T T
18.460339 21.300390 9.940182   T T T
19.880363 19.880363 8.520155   T T T
21.300390 21.300390 9.940182   T T T
22.720415 19.880363 8.520155   T T T
24.140442 21.300390 9.940182   T T T
25.560467 19.880363 8.520155   T T T
26.980494 21.300390 9.940182   T T T
28.400518 19.880363 8.520155   T T T
29.820545 21.300390 9.940182   T T T
31.240570 19.880363 8.520155   T T T
32.660595 21.300390 9.940182   T T T
34.080624 19.880363 8.520155   T T T
35.500648 21.300390 9.940182   T T T
36.920673 19.880363 8.520155   T T T
38.340698 21.300390 9.940182   T T T
39.760727 19.880363 8.520155   T T T
41.180752 21.300390 9.940182   T T T
15.620285 24.140442 9.940182   T T T
17.040312 22.720415 8.520155   T T T
18.460339 24.140442 9.940182   T T T
19.880363 22.720415 8.520155   T T T
21.300390 24.140442 9.940182   T T T
22.720415 22.720415 8.520155   T T T
24.140442 24.140442 9.940182   T T T
25.560467 22.720415 8.520155   T T T
26.980494 24.140442 9.940182   T T T
28.400518 22.720415 8.520155   T T T
29.820545 24.140442 9.940182   T T T
31.240570 22.720415 8.520155   T T T
32.660595 24.140442 9.940182   T T T
34.080624 22.720415 8.520155   T T T
35.500648 24.140442 9.940182   T T T
36.920673 22.720415 8.520155   T T T
38.340698 24.140442 9.940182   T T T
39.760727 22.720415 8.520155   T T T
41.180752 24.140442 9.940182   T T T
15.620285 26.980494 9.940182   T T T
17.040312 25.560467 8.520155   T T T
18.460339 26.980494 9.940182   T T T
19.880363 25.560467 8.520155   T T T
21.300390 26.980494 9.940182   T T T
22.720415 25.560467 8.520155   T T T
24.140442 26.980494 9.940182   T T T
25.560467 25.560467 8.520155   T T T
26.980494 26.980494 9.940182   T T T
28.400518 25.560467 8.520155   T T T
29.820545 26.980494 9.940182   T T T
31.240570 25.560467 8.520155   T T T
32.660595 26.980494 9.940182   T T T
34.080624 25.560467 8.520155   T T T
35.500648 26.980494 9.940182   T T T
36.920673 25.560467 8.520155   T T T
38.340698 26.980494 9.940182   T T T
39.760727 25.560467 8.520155   T T T
41.180752 26.980494 9.940182   T T T
15.620285 29.820545 9.940182   T T T
17.040312 28.400518 8.520155   T T T
18.460339 29.820545 9.940182   T T T
19.880363 28.400518 8.520155   T T T
21.300390 29.820545 9.940182   T T T
22.720415 28.400518 8.520155   T T T
24.140442 29.820545 9.940182   T T T
25.560467 28.400518 8.520155   T T T
26.980494 29.820545 9.940182   T T T
28.400518 28.400518 8.520155   T T T
29.820545 29.820545 9.940182   T T T
31.240570 28.400518 8.520155   T T T
32.660595 29.820545 9.940182   T T T
34.080624 28.400518 8.520155   T T T
35.500648 29.820545 9.940182   T T T
36.920673 28.400518 8.520155   T T T
38.340698 29.820545 9.940182   T T T
39.760727 28.400518 8.520155   T T T
41.180752 29.820545 9.940182   T T T
15.620285 32.660595 9.940182   T T T
17.040312 31.240570 8.520155   T T T
18.460339 32.660595 9.940182   T T T
19.880363 31.240570 8.520155   T T T
21.300390 32.660595 9.940182   T T T
22.720415 31.240570 8.520155   T T T
24.140442 32.660595 9.940182   T T T
25.560467 31.240570 8.520155   T T T
26.980494 32.660595 9.940182   T T T
28.400518 31.240570 8.520155   T T T
29.820545 32.660595 9.940182   T T T
31.240570 31.240570 8.520155   T T T
32.660595 32.660595 9.940182   T T T
34.080624 31.240570 8.520155   T T T
35.500648 32.660595 9.940182   T T T
36.920673 31.240570 8.520155   T T T
38.340698 32.660595 9.940182   T T T
39.760727 31.240570 8.520155   T T T
41.180752 32.660595 9.940182   T T T
15.620285 35.500648 9.940182   T T T
17.040312 34.080624 8.520155   T T T
18.460339 35.500648 9.940182   T T T
19.880363 34.080624 8.520155   T T T
21.300390 35.500648 9.940182   T T T
22.720415 34.080624 8.520155   T T T
24.140442 35.500648 9.940182   T T T
25.560467 34.080624 8.520155   T T T
26.980494 35.500648 9.940182   T T T
28.400518 34.080624 8.520155   T T T
29.820545 35.500648 9.940182   T T T
31.240570 34.080624 8.520155   T T T
32.660595 35.500648 9.940182   T T T
34.080624 34.080624 8.520155   T T T
35.500648 35.500648 9.940182   T T T
36.920673 34.080624 8.520155   T T T
38.340698 35.500648 9.940182   T T T
39.760727 34.080624 8.520155   T T T
41.180752 35.500648 9.940182   T T T
17.040312 36.920673 8.520155   T T T
18.460339 38.340698 9.940182   T T T
19.880363 36.920673 8.520155   T T T
21.300390 38.340698 9.940182   T T T
22.720415 36.920673 8.520155   T T T
24.140442 38.340698 9.940182   T T T
25.560467 36.920673 8.520155   T T T
26.980494 38.340698 9.940182   T T T
28.400518 36.920673 8.520155   T T T
29.820545 38.340698 9.940182   T T T
31.240570 36.920673 8.520155   T T T
32.660595 38.340698 9.940182   T T T
34.080624 36.920673 8.520155   T T T
35.500648 38.340698 9.940182   T T T
36.920673 36.920673 8.520155   T T T
38.340698 38.340698 9.940182   T T T
39.760727 36.920673 8.520155   T T T
19.880363 39.760727 8.520155   T T T
21.300390 41.180752 9.940182   T T T
22.720415 39.760727 8.520155   T T T
24.140442 41.180752 9.940182   T T T
25.560467 39.760727 8.520155   T T T
26.980494 41.180752 9.940182   T T T
28.400518 39.760727 8.520155   T T T
29.820545 41.180752 9.940182   T T T
31.240570 39.760727 8.520155   T T T
32.660595 41.180752 9.940182   T T T
34.080624 39.760727 8.520155   T T T
35.500648 41.180752 9.940182   T T T
36.920673 39.760727 8.520155   T T T
21.300390 12.780233 12.780233   T T T
24.140442 12.780233 12.780233   T T T
26.980494 12.780233 12.780233   T T T
29.820545 12.780233 12.780233   T T T
32.660595 12.780233 12.780233   T T T
35.500648 12.780233 12.780233   T T T
18.460339 15.620285 12.780233   T T T
19.880363 14.200259 11.360209   T T T
21.300390 15.620285 12.780233   T T T
22.720415 14.200259 11.360209   T T T
24.140442 15.620285 12.780233   T T T
25.560467 14.200259 11.360209   T T T
26.980494 15.620285 12.780233   T T T
28.400518 14.200259 11.360209   T T T
29.820545 15.620285 12.780233   T T T
31.240570 14.200259 11.360209   T T T
32.660595 15.620285 12.780233   T T T
34.080624 14.200259 11.360209   T T T
35.500648 15.620285 12.780233   T T T
36.920673 14.200259 11.360209   T T T
38.340698 15.620285 12.780233   T T T
15.620285 18.460339 12.780233   T T T
17.040312 17.040312 11.360209   T T T
18.460339 18.460339 12.780233   T T T
19.880363 17.040312 11.360209   T T T
21.300390 18.460339 12.780233   T T T
22.720415 17.040312 11.360209   T T T
24.140442 18.460339 12.780233   T T T
25.560467 17.040312 11.360209   T T T
26.980494 18.460339 12.780233   T T T
28.400518 17.040312 11.360209   T T T
29.820545 18.460339 12.780233   T T T
31.240570 17.040312 11.360209   T T T
32.660595 18.460339 12.780233   T T T
34.080624 17.040312 11.360209   T T T
35.500648 18.460339 12.780233   T T T
36.920673 17.040312 11.360209   T T T
38.340698 18.460339 12.780233   T T T
39.760727 17.040312 11.360209   T T T
41.180752 18.460339 12.780233   T T T
12.780233 21.300390 12.780233   T T T
14.200259 19.880363 11.360209   T T T
15.620285 21.300390 12.780233   T T T
17.040312 19.880363 11.360209   T T T
18.460339 21.300390 12.780233   T T T
19.880363 19.880363 11.360209   T T T
21.300390 21.300390 12.780233   T T T
22.720415 19.880363 11.360209   T T T
24.140442 21.300390 12.780233   T T T
25.560467 19.880363 11.360209   T T T
26.980494 21.300390 12.780233   T T T
28.400518 19.880363 11.360209   T T T
29.820545 21.300390 12.780233   T T T
31.240570 19.880363 11.360209   T T T
32.660595 21.300390 12.780233   T T T
34.080624 19.880363 11.360209   T T T
35.500648 21.300390 12.780233   T T T
36.920673 19.880363 11.360209   T T T
38.340698 21.300390 12.780233   T T T
39.760727 19.880363 11.360209   T T T
41.180752 21.300390 12.780233   T T T
42.600777 19.880363 11.360209   T T T
44.020802 21.300390 12.780233   T T T
12.780233 24.140442 12.780233   T T T
14.200259 22.720415 11.360209   T T T
15.620285 24.140442 12.780233   T T T
17.040312 22.720415 11.360209   T T T
18.460339 24.140442 12.780233   T T T
19.880363 22.720415 11.360209   T T T
21.300390 24.140442 12.780233   T T T
22.720415 22.720415 11.360209   T T T
24.140442 24.140442 12.780233   T T T
25.560467 22.720415 11.360209   T T T
26.980494 24.140442 12.780233   T T T
28.400518 22.720415 11.360209   T T T
29.820545 24.140442 12.780233   T T T
31.240570 22.720415 11.360209   T T T
32.660595 24.140442 12.780233   T T T
34.080624 22.720415 11.360209   T T T
35.500648 24.140442 12.780233   T T T
36.920673 22.720415 11.360209   T T T
38.340698 24.140442 12.780233   T T T
39.760727 22.720415 11.360209   T T T
41.180752 24.140442 12.780233   T T T
42.600777 22.720415 11.360209   T T T
44.020802 24.140442 12.780233   T T T
12.780233 26.980494 12.780233   T T T
14.200259 25.560467 11.360209   T T T
15.620285 26.980494 12.780233   T T T
17.040312 25.560467 11.360209   T T T
18.460339 26.980494 12.780233   T T T
19.880363 25.560467 11.360209   T T T
21.300390 26.980494 12.780233   T T T
22.720415 25.560467 11.360209   T T T
24.140442 26.980494 12.780233   T T T
25.560467 25.560467 11.360209   T T T
26.980494 26.980494 12.780233   T T T
28.400518 25.560467 11.360209   T T T
29.820545 26.980494 12.780233   T T T
31.240570 25.560467 11.360209   T T T
32.660595 26.980494 12.780233   T T T
34.080624 25.560467 11.360209   T T T
35.500648 26.980494 12.780233   T T T
36.920673 25.560467 11.360209   T T T
38.340698 26.980494 12.780233   T T T
39.760727 25.560467 11.360209   T T T
41.180752 26.980494 12.780233   T T T
42.600777 25.560467 11.360209   T T T
44.020802 26.980494 12.780233   T T T
12.780233 29.820545 12.780233   T T T
14.200259 28.400518 11.360209   T T T
15.620285 29.820545 12.780233   T T T
17.040312 28.400518 11.360209   T T T
18.460339 29.820545 12.780233   T T T
19.880363 28.400518 11.360209   T T T
21.300390 29.820545 12.780233   T T T
22.720415 28.400518 11.360209   T T T
24.140442 29.820545 12.780233   T T T
25.560467 28.400518 11.360209   T T T
26.980494 29.820545 12.780233   T T T
28.400518 28.400518 11.360209   T T T
29.820545 29.820545 12.780233   T T T
31.240570 28.400518 11.360209   T T T
32.660595 29.820545 12.780233   T T T
34.080624 28.400518 11.360209   T T T
35.500648 29.820545 12.780233   T T T
36.920673 28.400518 11.360209   T T T
38.340698 29.820545 12.780233   T T T
39.760727 28.400518 11.360209   T T T
41.180752 29.820545 12.780233   T T T
42.600777 28.400518 11.360209   T T T
44.020802 29.820545 12.780233   T T T
12.780233 32.660595 12.780233   T T T
14.200259 31.240570 11.360209   T T T
15.620285 32.660595 12.780233   T T T
17.040312 31.240570 11.360209   T T T
18.460339 32.660595 12.780233   T T T
19.880363 31.240570 11.360209   T T T
21.300390 32.660595 12.780233   T T T
22.720415 31.240570 11.360209   T T T
24.140442 32.660595 12.780233   T T T
25.560467 31.240570 11.360209   T T T
26.980494 32.660595 12.780233   T T T
28.400518 31.240570 11.360209   T T T
29.820545 32.660595 12.780233   T T T
31.240570 31.240570 11.360209   T T T
32.660595 32.660595 12.780233   T T T
34.080624 31.240570 11.360209   T T T
35.500648 32.660595 12.780233   T T T
36.920673 31.240570 11.360209   T T T
38.340698 32.660595 12.780233   T T T
39.760727 31.240570 11.360209   T T T
41.180752 32.660595 12.780233   T T T
42.600777 31.240570 11.360209   T T T
44.020802 32.660595 12.780233   T T T
12.780233 35.500648 12.780233   T T T
14.200259 34.080624 11.360209   T T T
15.620285 35.500648 12.780233   T T T
17.040312 34.080624 11.360209   T T T
18.460339 35.500648 12.780233   T T T
19.880363 34.080624 11.360209   T T T
21.300390 35.500648 12.780233   T T T
22.720415 34.080624 11.360209   T T T
24.140442 35.500648 12.780233   T T T
25.560467 34.080624 11.360209   T T T
26.980494 35.500648 12.780233   T T T
28.400518 34.080624 11.360209   T T T
29.820545 35.500648 12.780233   T T T
31.240570 34.080624 11.360209   T T T
32.660595 35.500648 12.780233   T T T
34.080624 34.080624 11.360209   T T T
35.500648 35.500648 12.780233   T T T
36.920673 34.080624 11.360209   T T T
38.340698 35.500648 12.780233   T T T
39.760727 34.080624 11.360209   T T T
41.180752 35.500648 12.780233   T T T
42.600777 34.080624 11.360209   T T T
44.020802 35.500648 12.780233   T T T
14.200259 36.920673 11.360209   T T T
15.620285 38.340698 12.780233   T T T
17.040312 36.920673 11.360209   T T T
18.460339 38.340698 12.780233   T T T
19.880363 36.920673 11.360209   T T T
21.300390 38.340698 12.780233   T T T
22.720415 36.920673 11.360209   T T T
24.140442 38.340698 12.780233   T T T
25.560467 36.920673 11.360209   T T T
26.980494 38.340698 12.780233   T T T
28.400518 36.920673 11.360209   T T T
29.820545 38.340698 12.780233   T T T
31.240570 36.920673 11.360209   T T T
32.660595 38.340698 12.780233   T T T
34.080624 36.920673 11.360209   T T T
35.500648 38.340698 12.780233   T T T
36.920673 36.920673 11.360209   T T T
38.340698 38.340698 12.780233   T T T
39.760727 36.920673 11.360209   T T T
41.180752 38.340698 12.780233   T T T
42.600777 36.920673 11.360209   T T T
17.040312 39.760727 11.360209   T T T
18.460339 41.180752 12.780233   T T T
19.880363 39.760727 11.360209   T T T
21.300390 41.180752 12.780233   T T T
22.720415 39.760727 11.360209   T T T
24.140442 41.180752 12.780233   T T T
25.560467 39.760727 11.360209   T T T
26.980494 41.180752 12.780233   T T T
28.400518 39.760727 11.360209   T T T
29.820545 41.180752 12.780233   T T T
31.240570 39.760727 11.360209   T T T
32.660595 41.180752 12.780233   T T T
34.080624 39.760727 11.360209   T T T
35.500648 41.180752 12.780233   T T T
36.920673 39.760727 11.360209   T T T
38.340698 41.180752 12.780233   T T T
39.760727 39.760727 11.360209   T T T
19.880363 42.600777 11.360209   T T T
21.300390 44.020802 12.780233   T T T
22.720415 42.600777 11.360209   T T T
24.140442 44.020802 12.780233   T T T
25.560467 42.600777 11.360209   T T T
26.980494 44.020802 12.780233   T T T
28.400518 42.600777 11.360209   T T T
29.820545 44.020802 12.780233   T T T
31.240570 42.600777 11.360209   T T T
32.660595 44.020802 12.780233   T T T
34.080624 42.600777 11.360209   T T T
35.500648 44.020802 12.780233   T T T
36.920673 42.600777 11.360209   T T T
21.300390 9.940182 15.620285   T T T
24.140442 9.940182 15.620285   T T T
26.980494 9.940182 15.620285   T T T
29.820545 9.940182 15.620285   T T T
32.660595 9.940182 15.620285   T T T
35.500648 9.940182 15.620285   T T T
18.460339 12.780233 15.620285   T T T
19.880363 11.360209 14.200259   T T T
21.300390 12.780233 15.620285   T T T
22.720415 11.360209 14.200259   T T T
24.140442 12.780233 15.620285   T T T
25.560467 11.360209 14.200259   T T T
26.980494 12.780233 15.620285   T T T
28.400518 11.360209 14.200259   T T T
29.820545 12.780233 15.620285   T T T
31.240570 11.360209 14.200259   T T T
32.660595 12.780233 15.620285   T T T
34.080624 11.360209 14.200259   T T T
35.500648 12.780233 15.620285   T T T
36.920673 11.360209 14.200259   T T T
38.340698 12.780233 15.620285   T T T
15.620285 15.620285 15.620285   T T T
17.040312 14.200259 14.200259   T T T
18.460339 15.620285 15.620285   T T T
19.880363 14.200259 14.200259   T T T
21.300390 15.620285 15.620285   T T T
22.720415 14.200259 14.200259   T T T
24.140442 15.620285 15.620285   T T T
25.560467 14.200259 14.200259   T T T
26.980494 15.620285 15.620285   T T T
28.400518 14.200259 14.200259   T T T
29.820545 15.620285 15.620285   T T T
31.240570 14.200259 14.200259   T T T
32.660595 15.620285 15.620285   T T T
34.080624 14.200259 14.200259   T T T
35.500648 15.620285 15.620285   T T T
36.920673 14.200259 14.200259   T T T
38.340698 15.620285 15.620285   T T T
39.760727 14.200259 14.200259   T T T
41.180752 15.620285 15.620285   T T T
12.780233 18.460339 15.620285   T T T
14.200259 17.040312 14.200259   T T T
15.620285 18.460339 15.620285   T T T
17.040312 17.040312 14.200259   T T T
18.460339 18.460339 15.620285   T T T
19.880363 17.040312 14.200259   T T T
21.300390 18.460339 15.620285   T T T
22.720415 17.040312 14.200259   T T T
24.140442 18.460339 15.620285   T T T
25.560467 17.040312 14.200259   T T T
26.980494 18.460339 15.620285   T T T
28.400518 17.040312 14.200259   T T T
29.820545 18.460339 15.620285   T T T
31.240570 17.040312 14.200259   T T T
32.660595 18.460339 15.620285   T T T
34.080624 17.040312 14.200259   T T T
35.500648 18.460339 15.620285   T T T
36.920673 17.040312 14.200259   T T T
38.340698 18.460339 15.620285   T T T
39.760727 17.040312 14.200259   T T T
41.180752 18.460339 15.620285   T T T
42.600777 17.040312 14.200259   T T T
44.020802 18.460339 15.620285   T T T
9.940182 21.300390 15.620285   T T T
11.360209 19.880363 14.200259   T T T
12.780233 21.300390 15.620285   T T T
14.200259 19.880363 14.200259   T T T
15.620285 21.300390 15.620285   T T T
17.040312 19.880363 14.200259   T T T
18.460339 21.300390 15.620285   T T T
19.880363 19.880363 14.200259   T T T
21.300390 21.300390 15.620285   T T T
22.720415 19.880363 14.200259   T T T
24.140442 21.300390 15.620285   T T T
25.560467 19.880363 14.200259   T T T
26.980494 21.300390 15.620285   T T T
28.400518 19.880363 14.200259   T T T
29.820545 21.300390 15.620285   T T T
31.240570 19.880363 14.200259   T T T
32.660595 21.300390 15.620285   T T T
34.080624 19.880363 14.200259   T T T
35.500648 21.300390 15.620285   T T T
36.920673 19.880363 14.200259   T T T
38.340698 21.300390 15.620285   T T T
39.760727 19.880363 14.200259   T T T
41.180752 21.300390 15.620285   T T T
42.600777 19.880363 14.200259   T T T
44.020802 21.300390 15.620285   T T T
45.440830 19.880363 14.200259   T T T
46.860855 21.300390 15.620285   T T T
9.940182 24.140442 15.620285   T T T
11.360209 22.720415 14.200259   T T T
12.780233 24.140442 15.620285   T T T
14.200259 22.720415 14.200259   T T T
15.620285 24.140442 15.620285   T T T
17.040312 22.720415 14.200259   T T T
18.460339 24.140442 15.620285   T T T
19.880363 22.720415 14.200259   T T T
21.300390 24.140442 15.620285   T T T
22.720415 22.720415 14.200259   T T T
24.140442 24.140442 15.620285   T T T
25.560467 22.720415 14.200259   T T T
26.980494 24.140442 15.620285   T T T
28.400518 22.720415 14.200259   T T T
29.820545 24.140442 15.620285   T T T
31.240570 22.720415 14.200259   T T T
32.660595 24.140442 15.620285   T T T
34.080624 22.720415 14.200259   T T T
35.500648 24.140442 15.620285   T T T
36.920673 22.720415 14.200259   T T T
38.340698 24.140442 15.620285   T T T
39.760727 22.720415 14.200259   T T T
41.180752 24.140442 15.620285   T T T
42.600777 22.720415 14.200259   T T T
44.020802 24.140442 15.620285   T T T
45.440830 22.720415 14.200259   T T T
46.860855 24.140442 15.620285   T T T
9.940182 26.980494 15.620285   T T T
11.360209 25.560467 14.200259   T T T
12.780233 26.980494 15.620285   T T T
14.200259 25.560467 14.200259   T T T
15.620285 26.980494 15.620285   T T T
17.040312 25.560467 14.200259   T T T
18.460339 26.980494 15.620285   T T T
19.880363 25.560467 14.200259   T T T
21.300390 26.980494 15.620285   T T T
22.720415 25.560467 14.200259   T T T
24.140442 26.980494 15.620285   T T T
25.560467 25.560467 14.200259   T T T
26.980494 26.980494 15.620285   T T T
28.400518 25.560467 14.200259   T T T
29.820545 26.980494 15.620285   T T T
31.240570 25.560467 14.200259   T T T
32.660595 26.980494 15.620285   T T T
34.080624 25.560467 14.200259   T T T
35.500648 26.980494 15.620285   T T T
36.920673 25.560467 14.200259   T T T
38.340698 26.980494 15.620285   T T T
39.760727 25.560467 14.200259   T T T
41.180752 26.980494 15.620285   T T T
42.600777 25.560467 14.200259   T T T
44.020802 26.980494 15.620285   T T T
45.440830 25.560467 14.200259   T T T
46.860855 26.980494 15.620285   T T T
9.940182 29.820545 15.620285   T T T
11.360209 28.400518 14.200259   T T T
12.780233 29.820545 15.620285   T T T
14.200259 28.400518 14.200259   T T T
15.620285 29.820545 15.620285   T T T
17.040312 28.400518 14.200259   T T T
18.460339 29.820545 15.620285   T T T
19.880363 28.400518 14.200259   T T T
21.300390 29.820545 15.620285   T T T
22.720415 28.400518 14.200259   T T T
24.140442 29.820545 15.620285   T T T
25.560467 28.400518 14.200259   T T T
26.980494 29.820545 15.620285   T T T
28.400518 28.400518 14.200259   T T T
29.820545 29.820545 15.620285   T T T
31.240570 28.400518 14.200259   T T T
32.660595 29.820545 15.620285   T T T
34.080624 28.400518 14.200259   T T T
35.500648 29.820545 15.620285   T T T
36.920673 28.400518 14.200259   T T T
38.340698 29.820545 15.620285   T T T
39.760727 28.400518 14.200259   T T T
41.180752 29.820545 15.620285   T T T
42.600777 28.400518 14.200259   T T T
44.020802 29.820545 15.620285   T T T
45.440830 28.400518 14.200259   T T T
46.860855 29.820545 15.620285   T T T
9.940182 32.660595 15.620285   T T T
11.360209 31.240570 14.200259   T T T
12.780233 32.660595 15.620285   T T T
14.200259 31.240570 14.200259   T T T
15.620285 32.660595 15.620285   T T T
17.040312 31.240570 14.200259   T T T
18.460339 32.660595 15.620285   T T T
19.880363 31.240570 14.200259   T T T
21.300390 32.660595 15.620285   T T T
22.720415 31.240570 14.200259   T T T
24.140442 32.660595 15.620285   T T T
25.560467 31.240570 14.200259   T T T
26.980494 32.660595 15.620285   T T T
28.400518 31.240570 14.200259   T T T
29.820545 32.660595 15.620285   T T T
31.240570 31.240570 14.200259   T T T
32.660595 32.660595 15.620285   T T T
34.080624 31.240570 14.200259   T T T
35.500648 32.660595 15.620285   T T T
36.920673 31.240570 14.200259   T T T
38.340698 32.660595 15.620285   T T T
39.760727 31.240570 14.200259   T T T
41.180752 32.660595 15.620285   T T T
42.600777 31.240570 14.200259   T T T
44.020802 32.660595 15.620285   T T T
45.440830 31.240570 14.200259   T T T
46.860855 32.660595 15.620285   T T T
9.940182 35.500648 15.620285   T T T
11.360209 34.080624 14.200259   T T T
12.780233 35.500648 15.620285   T T T
14.200259 34.080624 14.200259   T T T
15.620285 35.500648 15.620285   T T T
17.040312 34.080624 14.200259   T T T
18.460339 35.500648 15.620285   T T T
19.880363 34.080624 14.200259   T T T
21.300390 35.500648 15.620285   T T T
22.720415 34.080624 14.200259   T T T
24.140442 35.500648 15.620285   T T T
25.560467 34.080624 14.200259   T T T
26.980494 35.500648 15.620285   T T T
28.400518 34.080624 14.200259   T T T
29.820545 35.500648 15.620285   T T T
31.240570 34.080624 14.200259   T T T
32.660595 35.500648 15.620285   T T T
34.080624 34.080624 14.200259   T T T
35.500648 35.500648 15.620285   T T T
36.920673 34.080624 14.200259   T T T
38.340698 35.500648 15.620285   T T T
39.760727 34.080624 14.200259   T T T
41.180752 35.500648 15.620285   T T T
42.600777 34.080624 14.200259   T T T
44.020802 35.500648 15.620285   T T T
45.440830 34.080624 14.200259   T T T
46.860855 35.500648 15.620285   T T T
11.360209 36.920673 14.200259   T T T
12.780233 38.340698 15.620285   T T T
14.200259 36.920673 14.200259   T T T
15.620285 38.340698 15.620285   T T T
17.040312 36.920673 14.200259   T T T
18.460339 38.340698 15.620285   T T T
19.880363 36.920673 14.200259   T T T
21.300390 38.340698 15.620285   T T T
22.720415 36.920673 14.200259   T T T
24.140442 38.340698 15.620285   T T T
25.560467 36.920673 14.200259   T T T
26.980494 38.340698 15.620285   T T T
28.400518 36.920673 14.200259   T T T
29.820545 38.340698 15.620285   T T T
31.240570 36.920673 14.200259   T T T
32.660595 38.340698 15.620285   T T T
34.080624 36.920673 14.200259   T T T
35.500648 38.340698 15.620285   T T T
36.920673 36.920673 14.200259   T T T
38.340698 38.340698 15.620285   T T T
39.760727 36.920673 14.200259   T T T
41.180752 38.340698 15.620285   T T T
42.600777 36.920673 14.200259   T T T
44.020802 38.340698 15.620285   T T T
45.440830 36.920673 14.200259   T T T
14.200259 39.760727 14.200259   T T T
15.620285 41.180752 15.620285   T T T
17.040312 39.760727 14.200259   T T T
18.460339 41.180752 15.620285   T T T
19.880363 39.760727 14.200259   T T T
21.300390 41.180752 15.620285   T T T
22.720415 39.760727 14.200259   T T T
24.140442 41.180752 15.620285   T T T
25.560467 39.760727 14.200259   T T T
26.980494 41.180752 15.620285   T T T
28.400518 39.760727 14.200259   T T T
29.820545 41.180752 15.620285   T T T
31.240570 39.760727 14.200259   T T T
32.660595 41.180752 15.620285   T T T
34.080624 39.760727 14.200259   T T T
35.500648 41.180752 15.620285   T T T
36.920673 39.760727 14.200259   T T T
38.340698 41.180752 15.620285   T T T
39.760727 39.760727 14.200259   T T T
41.180752 41.180752 15.620285   T T T
42.600777 39.760727 14.200259   T T T
17.040312 42.600777 14.200259   T T T
18.460339 44.020802 15.620285   T T T
19.880363 42.600777 14.200259   T T T
21.300390 44.020802 15.620285   T T T
22.720415 42.600777 14.200259   T T T
24.140442 44.020802 15.620285   T T T
25.560467 42.600777 14.200259   T T T
26.980494 44.020802 15.620285   T T T
28.400518 42.600777 14.200259   T T T
29.820545 44.020802 15.620285   T T T
31.240570 42.600777 14.200259   T T T
32.660595 44.020802 15.620285   T T T
34.080624 42.600777 14.200259   T T T
35.500648 44.020802 15.620285   T T T
36.920673 42.600777 14.200259   T T T
38.340698 44.020802 15.620285   T T T
39.760727 42.600777 14.200259   T T T
19.880363 45.440830 14.200259   T T T
21.300390 46.860855 15.620285   T T T
22.720415 45.440830 14.200259   T T T
24.140442 46.860855 15.620285   T T T
25.560467 45.440830 14.200259   T T T
26.980494 46.860855 15.620285   T T T
28.400518 45.440830 14.200259   T T T
29.820545 46.860855 15.620285   T T T
31.240570 45.440830 14.200259   T T T
32.660595 46.860855 15.620285   T T T
34.080624 45.440830 14.200259   T T T
35.500648 46.860855 15.620285   T T T
36.920673 45.440830 14.200259   T T T
21.300390 7.100130 18.460339   T T T
24.140442 7.100130 18.460339   T T T
26.980494 7.100130 18.460339   T T T
29.820545 7.100130 18.460339   T T T
32.660595 7.100130 18.460339   T T T
35.500648 7.100130 18.460339   T T T
18.460339 9.940182 18.460339   T T T
19.880363 8.520155 17.040312   T T T
21.300390 9.940182 18.460339   T T T
22.720415 8.520155 17.040312   T T T
24.140442 9.940182 18.460339   T T T
25.560467 8.520155 17.040312   T T T
26.980494 9.940182 18.460339   T T T
28.400518 8.520155 17.040312   T T T
29.820545 9.940182 18.460339   T T T
31.240570 8.520155 17.040312   T T T
32.660595 9.940182 18.460339   T T T
34.080624 8.520155 17.040312   T T T
35.500648 9.940182 18.460339   T T T
36.920673 8.520155 17.040312   T T T
38.340698 9.940182 18.460339   T T T
15.620285 12.780233 18.460339   T T T
17.040312 11.360209 17.040312   T T T
18.460339 12.780233 18.460339   T T T
19.880363 11.360209 17.040312   T T T
21.300390 12.780233 18.460339   T T T
22.720415 11.360209 17.040312   T T T
24.140442 12.780233 18.460339   T T T
25.560467 11.360209 17.040312   T T T
26.980494 12.780233 18.460339   T T T
28.400518 11.360209 17.040312   T T T
29.820545 12.780233 18.460339   T T T
31.240570 11.360209 17.040312   T T T
32.660595 12.780233 18.460339   T T T
34.080624 11.360209 17.040312   T T T
35.500648 12.780233 18.460339   T T T
36.920673 11.360209 17.040312   T T T
38.340698 12.780233 18.460339   T T T
39.760727 11.360209 17.040312   T T T
41.180752 12.780233 18.460339   T T T
12.780233 15.620285 18.460339   T T T
14.200259 14.200259 17.040312   T T T
15.620285 15.620285 18.460339   T T T
17.040312 14.200259 17.040312   T T T
18.460339 15.620285 18.460339   T T T
19.880363 14.200259 17.040312   T T T
21.300390 15.620285 18.460339   T T T
22.720415 14.200259 17.040312   T T T
24.140442 15.620285 18.460339   T T T
25.560467 14.200259 17.040312   T T T
26.980494 15.620285 18.460339   T T T
28.400518 14.200259 17.040312   T T T
29.820545 15.620285 18.460339   T T T
31.240570 14.200259 17.040312   T T T
32.660595 15.620285 18.460339   T T T
34.080624 14.200259 17.040312   T T T
35.500648 15.620285 18.460339   T T T
36.920673 14.200259 17.040312   T T T
38.340698 15.620285 18.460339   T T T
39.760727 14.200259 17.040312   T T T
41.180752 15.620285 18.460339   T T T
42.600777 14.200259 17.040312   T T T
44.020802 15.620285 18.460339   T T T
9.940182 18.460339 18.460339   T T T
11.360209 17.040312 17.040312   T T T
12.780233 18.460339 18.460339   T T T
14.200259 17.040312 17.040312   T T T
15.620285 18.460339 18.460339   T T T
17.040312 17.040312 17.040312   T T T
18.460339 18.460339 18.460339   T T T
19.880363 17.040312 17.040312   T T T
21.300390 18.460339 18.460339   T T T
22.720415 17.040312 17.040312   T T T
24.140442 18.460339 18.460339   T T T
25.560467 17.040312 17.040312   T T T
26.980494 18.460339 18.460339   T T T
28.400518 17.040312 17.040312   T T T
29.820545 18.460339 18.460339   T T T
31.240570 17.040312 17.040312   T T T
32.660595 18.460339 18.460339   T T T
34.080624 17.040312 17.040312   T T T
35.500648 18.460339 18.460339   T T T
36.920673 17.040312 17.040312   T T T
38.340698 18.460339 18.460339   T T T
39.760727 17.040312 17.040312   T T T
41.180752 18.460339 18.460339   T T T
42.600777 17.040312 17.040312   T T T
44.020802 18.460339 18.460339   T T T
45.440830 17.040312 17.040312   T T T
46.860855 18.460339 18.460339   T T T
7.100130 21.300390 18.460339   T T T
8.520155 19.880363 17.040312   T T T
9.940182 21.300390 18.460339   T T T
11.360209 19.880363 17.040312   T T T
12.780233 21.300390 18.460339   T T T
14.200259 19.880363 17.040312   T T T
15.620285 21.300390 18.460339   T T T
17.040312 19.880363 17.040312   T T T
18.460339 21.300390 18.460339   T T T
19.880363 19.880363 17.040312   T T T
21.300390 21.300390 18.460339   T T T
22.720415 19.880363 17.040312   T T T
24.140442 21.300390 18.460339   T T T
25.560467 19.880363 17.040312   T T T
26.980494 21.300390 18.460339   T T T
28.400518 19.880363 17.040312   T T T
29.820545 21.300390 18.460339   T T T
31.240570 19.880363 17.040312   T T T
32.660595 21.300390 18.460339   T T T
34.080624 19.880363 17.040312   T T T
35.500648 21.300390 18.460339   T T T
36.920673 19.880363 17.040312   T T T
38.340698 21.300390 18.460339   T T T
39.760727 19.880363 17.040312   T T T
41.180752 21.300390 18.460339   T T T
42.600777 19.880363 17.040312   T T T
44.020802 21.300390 18.460339   T T T
45.440830 19.880363 17.040312   T T T
46.860855 21.300390 18.460339   T T T
48.280884 19.880363 17.040312   T T T
49.700909 21.300390 18.460339   T T T
7.100130 24.140442 18.460339   T T T
8.520155 22.720415 17.040312   T T T
9.940182 24.140442 18.460339   T T T
11.360209 22.720415 17.040312   T T T
12.780233 24.140442 18.460339   T T T
14.200259 22.720415 17.040312   T T T
15.620285 24.140442 18.460339   T T T
17.040312 22.720415 17.040312   T T T
18.460339 24.140442 18.460339   T T T
19.880363 22.720415 17.040312   T T T
21.300390 24.140442 18.460339   T T T
22.720415 22.720415 17.040312   T T T
24.140442 24.140442 18.460339   T T T
25.560467 22.720415 17.040312   T T T
26.980494 24.140442 18.460339   T T T
28.400518 22.720415 17.040312   T T T
29.820545 24.140442 18.460339   T T T
31.240570 22.720415 17.040312   T T T
32.660595 24.140442 18.460339   T T T
34.080624 22.720415 17.040312   T T T
35.500648 24.140442 18.460339   T T T
36.920673 22.720415 17.040312   T T T
38.340698 24.140442 18.460339   T T T
39.760727 22.720415 17.040312   T T T
41.180752 24.140442 18.460339   T T T
42.600777 22.720415 17.040312   T T T
44.020802 24.140442 18.460339   T T T
45.440830 22.720415 17.040312   T T T
46.860855 24.140442 18.460339   T T T
48.280884 22.720415 17.040312   T T T
49.700909 24.140442 18.460339   T T T
7.100130 26.980494 18.460339   T T T
8.520155 25.560467 17.040312   T T T
9.940182 26.980494 18.460339   T T T
11.360209 25.560467 17.040312   T T T
12.780233 26.980494 18.460339   T T T
14.200259 25.560467 17.040312   T T T
15.620285 26.980494 18.460339   T T T
17.040312 25.560467 17.040312   T T T
18.460339 26.980494 18.460339   T T T
19.880363 25.560467 17.040312   T T T
21.300390 26.980494 18.460339   T T T
22.720415 25.560467 17.040312   T T T
24.140442 26.980494 18.460339   T T T
25.560467 25.560467 17.040312   T T T
26.980494 26.980494 18.460339   T T T
28.400518 25.560467 17.040312   T T T
29.820545 26.980494 18.460339   T T T
31.240570 25.560467 17.040312   T T T
32.660595 26.980494 18.460339   T T T
34.080624 25.560467 17.040312   T T T
35.500648 26.980494 18.460339   T T T
36.920673 25.560467 17.040312   T T T
38.340698 26.980494 18.460339   T T T
39.760727 25.560467 17.040312   T T T
41.180752 26.980494 18.460339   T T T
42.600777 25.560467 17.040312   T T T
44.020802 26.980494 18.460339   T T T
45.440830 25.560467 17.040312   T T T
46.860855 26.980494 18.460339   T T T
48.280884 25.560467 17.040312   T T T
49.700909 26.980494 18.460339   T T T
7.100130 29.820545 18.460339   T T T
8.520155 28.400518 17.040312   T T T
9.940182 29.820545 18.460339   T T T
11.360209 28.400518 17.040312   T T T
12.780233 29.820545 18.460339   T T T
14.200259 28.400518 17.040312   T T T
15.620285 29.820545 18.460339   T T T
17.040312 28.400518 17.040312   T T T
18.460339 29.820545 18.460339   T T T
19.880363 28.400518 17.040312   T T T
21.300390 29.820545 18.460339   T T T
22.720415 28.400518 17.040312   T T T
24.140442 29.820545 18.460339   T T T
25.560467 28.400518 17.040312   T T T
26.980494 29.820545 18.460339   T T T
28.400518 28.400518 17.040312   T T T
29.820545 29.820545 18.460339   T T T
31.240570 28.400518 17.040312   T T T
32.660595 29.820545 18.460339   T T T
34.080624 28.400518 17.040312   T T T
35.500648 29.820545 18.460339   T T T
36.920673 28.400518 17.040312   T T T
38.340698 29.820545 18.460339   T T T
39.760727 28.400518 17.040312   T T T
41.180752 29.820545 18.460339   T T T
42.600777 28.400518 17.040312   T T T
44.020802 29.820545 18.460339   T T T
45.440830 28.400518 17.040312   T T T
46.860855 29.820545 18.460339   T T T
48.280884 28.400518 17.040312   T T T
49.700909 29.820545 18.460339   T T T
7.100130 32.660595 18.460339   T T T
8.520155 31.240570 17.040312   T T T
9.940182 32.660595 18.460339   T T T
11.360209 31.240570 17.040312   T T T
12.780233 32.660595 18.460339   T T T
14.200259 31.240570 17.040312   T T T
15.620285 32.660595 18.460339   T T T
17.040312 31.240570 17.040312   T T T
18.460339 32.660595 18.460339   T T T
19.880363 31.240570 17.040312   T T T
21.300390 32.660595 18.460339   T T T
22.720415 31.240570 17.040312   T T T
24.140442 32.660595 18.460339   T T T
25.560467 31.240570 17.040312   T T T
26.980494 32.660595 18.460339   T T T
28.400518 31.240570 17.040312   T T T
29.820545 32.660595 18.460339   T T T
31.240570 31.240570 17.040312   T T T
32.660595 32.660595 18.460339   T T T
34.080624 31.240570 17.040312   T T T
35.500648 32.660595 18.460339   T T T
36.920673 31.240570 17.040312   T T T
38.340698 32.660595 18.460339   T T T
39.760727 31.240570 17.040312   T T T
41.180752 32.660595 18.460339   T T T
42.600777 31.240570 17.040312   T T T
44.020802 32.660595 18.460339   T T T
45.440830 31.240570 17.040312   T T T
46.860855 32.660595 18.460339   T T T
48.280884 31.240570 17.040312   T T T
49.700909 32.660595 18.460339   T T T
7.100130 35.500648 18.460339   T T T
8.520155 34.080624 17.040312   T T T
9.940182 35.500648 18.460339   T T T
11.360209 34.080624 17.040312   T T T
12.780233 35.500648 18.460339   T T T
14.200259 34.080624 17.040312   T T T
15.620285 35.500648 18.460339   T T T
17.040312 34.080624 17.040312   T T T
18.460339 35.500648 18.460339   T T T
19.880363 34.080624 17.040312   T T T
21.300390 35.500648 18.460339   T T T
22.720415 34.080624 17.040312   T T T
24.140442 35.500648 18.460339   T T T
25.560467 34.080624 17.040312   T T T
26.980494 35.500648 18.460339   T T T
28.400518 34.080624 17.040312   T T T
29.820545 35.500648 18.460339   T T T
31.240570 34.080624 17.040312   T T T
32.660595 35.500648 18.460339   T T T
34.080624 34.080624 17.040312   T T T
35.500648 35.500648 18.460339   T T T
36.920673 34.080624 17.040312   T T T
38.340698 35.500648 18.460339   T T T
39.760727 34.080624 17.040312   T T T
41.180752 35.500648 18.460339   T T T
42.600777 34.080624 17.040312   T T T
44.020802 35.500648 18.460339   T T T
45.440830 34.080624 17.040312   T T T
46.860855 35.500648 18.460339   T T T
48.280884 34.080624 17.040312   T T T
49.700909 35.500648 18.460339   T T T
8.520155 36.920673 17.040312   T T T
9.940182 38.340698 18.460339   T T T
11.360209 36.920673 17.040312   T T T
12.780233 38.340698 18.460339   T T T
14.200259 36.920673 17.040312   T T T
15.620285 38.340698 18.460339   T T T
17.040312 36.920673 17.040312   T T T
18.460339 38.340698 18.460339   T T T
19.880363 36.920673 17.040312   T T T
21.300390 38.340698 18.460339   T T T
22.720415 36.920673 17.040312   T T T
24.140442 38.340698 18.460339   T T T
25.560467 36.920673 17.040312   T T T
26.980494 38.340698 18.460339   T T T
28.400518 36.920673 17.040312   T T T
29.820545 38.340698 18.460339   T T T
31.240570 36.920673 17.040312   T T T
32.660595 38.340698 18.460339   T T T
34.080624 36.920673 17.040312   T T T
35.500648 38.340698 18.460339   T T T
36.920673 36.920673 17.040312   T T T
38.340698 38.340698 18.460339   T T T
39.760727 36.920673 17.040312   T T T
41.180752 38.340698 18.460339   T T T
42.600777 36.920673 17.040312   T T T
44.020802 38.340698 18.460339   T T T
45.440830 36.920673 17.040312   T T T
46.860855 38.340698 18.460339   T T T
48.280884 36.920673 17.040312   T T T
11.360209 39.760727 17.040312   T T T
12.780233 41.180752 18.460339   T T T
14.200259 39.760727 17.040312   T T T
15.620285 41.180752 18.460339   T T T
17.040312 39.760727 17.040312   T T T
18.460339 41.180752 18.460339   T T T
19.880363 39.760727 17.040312   T T T
21.300390 41.180752 18.460339   T T T
22.720415 39.760727 17.040312   T T T
24.140442 41.180752 18.460339   T T T
25.560467 39.760727 17.040312   T T T
26.980494 41.180752 18.460339   T T T
28.400518 39.760727 17.040312   T T T
29.820545 41.180752 18.460339   T T T
31.240570 39.760727 17.040312   T T T
32.660595 41.180752 18.460339   T T T
34.080624 39.760727 17.040312   T T T
35.500648 41.180752 18.460339   T T T
36.920673 39.760727 17.040312   T T T
38.340698 41.180752 18.460339   T T T
39.760727 39.760727 17.040312   T T T
41.180752 41.180752 18.460339   T T T
42.600777 39.760727 17.040312   T T T
44.020802 41.180752 18.460339   T T T
45.440830 39.760727 17.040312   T T T
14.200259 42.600777 17.040312   T T T
15.620285 44.020802 18.460339   T T T
17.040312 42.600777 17.040312   T T T
18.460339 44.020802 18.460339   T T T
19.880363 42.600777 17.040312   T T T
21.300390 44.020802 18.460339   T T T
22.720415 42.600777 17.040312   T T T
24.140442 44.020802 18.460339   T T T
25.560467 42.600777 17.040312   T T T
26.980494 44.020802 18.460339   T T T
28.400518 42.600777 17.040312   T T T
29.820545 44.020802 18.460339   T T T
31.240570 42.600777 17.040312   T T T
32.660595 44.020802 18.460339   T T T
34.080624 42.600777 17.040312   T T T
35.500648 44.020802 18.460339   T T T
36.920673 42.600777 17.040312   T T T
38.340698 44.020802 18.460339   T T T
39.760727 42.600777 17.040312   T T T
41.180752 44.020802 18.460339   T T T
42.600777 42.600777 17.040312   T T T
17.040312 45.440830 17.040312   T T T
18.460339 46.860855 18.460339   T T T
19.880363 45.440830 17.040312   T T T
21.300390 46.860855 18.460339   T T T
22.720415 45.440830 17.040312   T T T
24.140442 46.860855 18.460339   T T T
25.560467 45.440830 17.040312   T T T
26.980494 46.860855 18.460339   T T T
28.400518 45.440830 17.040312   T T T
29.820545 46.860855 18.460339   T T T
31.240570 45.440830 17.040312   T T T
32.660595 46.860855 18.460339   T T T
34.080624 45.440830 17.040312   T T T
35.500648 46.860855 18.460339   T T T
36.920673 45.440830 17.040312   T T T
38.340698 46.860855 18.460339   T T T
39.760727 45.440830 17.040312   T T T
19.880363 48.280884 17.040312   T T T
21.300390 49.700909 18.460339   T T T
22.720415 48.280884 17.040312   T T T
24.140442 49.700909 18.460339   T T T
25.560467 48.280884 17.040312   T T T
26.980494 49.700909 18.460339   T T T
28.400518 48.280884 17.040312   T T T
29.820545 49.700909 18.460339   T T T
31.240570 48.280884 17.040312   T T T
32.660595 49.700909 18.460339   T T T
34.080624 48.280884 17.040312   T T T
35.500648 49.700909 18.460339   T T T
36.920673 48.280884 17.040312   T T T
18.460339 7.100130 21.300390   T T T
21.300390 7.100130 21.300390   T T T
24.140442 7.100130 21.300390   T T T
26.980494 7.100130 21.300390   T T T
29.820545 7.100130 21.300390   T T T
32.660595 7.100130 21.300390   T T T
35.500648 7.100130 21.300390   T T T
38.340698 7.100130 21.300390   T T T
15.620285 9.940182 21.300390   T T T
17.040312 8.520155 19.880363   T T T
18.460339 9.940182 21.300390   T T T
19.880363 8.520155 19.880363   T T T
21.300390 9.940182 21.300390   T T T
22.720415 8.520155 19.880363   T T T
24.140442 9.940182 21.300390   T T T
25.560467 8.520155 19.880363   T T T
26.980494 9.940182 21.300390   T T T
28.400518 8.520155 19.880363   T T T
29.820545 9.940182 21.300390   T T T
31.240570 8.520155 19.880363   T T T
32.660595 9.940182 21.300390   T T T
34.080624 8.520155 19.880363   T T T
35.500648 9.940182 21.300390   T T T
36.920673 8.520155 19.880363   T T T
38.340698 9.940182 21.300390   T T T
39.760727 8.520155 19.880363   T T T
41.180752 9.940182 21.300390   T T T
12.780233 12.780233 21.300390   T T T
14.200259 11.360209 19.880363   T T T
15.620285 12.780233 21.300390   T T T
17.040312 11.360209 19.880363   T T T
18.460339 12.780233 21.300390   T T T
19.880363 11.360209 19.880363   T T T
21.300390 12.780233 21.300390   T T T
22.720415 11.360209 19.880363   T T T
24.140442 12.780233 21.300390   T T T
25.560467 11.360209 19.880363   T T T
26.980494 12.780233 21.300390   T T T
28.400518 11.360209 19.880363   T T T
29.820545 12.780233 21.300390   T T T
31.240570 11.360209 19.880363   T T T
32.660595 12.780233 21.300390   T T T
34.080624 11.360209 19.880363   T T T
35.500648 12.780233 21.300390   T T T
36.920673 11.360209 19.880363   T T T
38.340698 12.780233 21.300390   T T T
39.760727 11.360209 19.880363   T T T
41.180752 12.780233 21.300390   T T T
42.600777 11.360209 19.880363   T T T
44.020802 12.780233 21.300390   T T T
9.940182 15.620285 21.300390   T T T
11.360209 14.200259 19.880363   T T T
12.780233 15.620285 21.300390   T T T
14.200259 14.200259 19.880363   T T T
15.620285 15.620285 21.300390   T T T
17.040312 14.200259 19.880363   T T T
18.460339 15.620285 21.300390   T T T
19.880363 14.200259 19.880363   T T T
21.300390 15.620285 21.300390   T T T
22.720415 14.200259 19.880363   T T T
24.140442 15.620285 21.300390   T T T
25.560467 14.200259 19.880363   T T T
26.980494 15.620285 21.300390   T T T
28.400518 14.200259 19.880363   T T T
29.820545 15.620285 21.300390   T T T
31.240570 14.200259 19.880363   T T T
32.660595 15.620285 21.300390   T T T
34.080624 14.200259 19.880363   T T T
35.500648 15.620285 21.300390   T T T
36.920673 14.200259 19.880363   T T T
38.340698 15.620285 21.300390   T T T
39.760727 14.200259 19.880363   T T T
41.180752 15.620285 21.300390   T T T
42.600777 14.200259 19.880363   T T T
44.020802 15.620285 21.300390   T T T
45.440830 14.200259 19.880363   T T T
46.860855 15.620285 21.300390   T T T
7.100130 18.460339 21.300390   T T T
8.520155 17.040312 19.880363   T T T
9.940182 18.460339 21.300390   T T T
11.360209 17.040312 19.880363   T T T
12.780233 18.460339 21.300390   T T T
14.200259 17.040312 19.880363   T T T
15.620285 18.460339 21.300390   T T T
17.040312 17.040312 19.880363   T T T
18.460339 18.460339 21.300390   T T T
19.880363 17.040312 19.880363   T T T
21.300390 18.460339 21.300390   T T T
22.720415 17.040312 19.880363   T T T
24.140442 18.460339 21.300390   T T T
25.560467 17.040312 19.880363   T T T
26.980494 18.460339 21.300390   T T T
28.400518 17.040312 19.880363   T T T
29.820545 18.460339 21.300390   T T T
31.240570 17.040312 19.880363   T T T
32.660595 18.460339 21.300390   T T T
34.080624 17.040312 19.880363   T T T
35.500648 18.460339 21.300390   T T T
36.920673 17.040312 19.880363   T T T
38.340698 18.460339 21.300390   T T T
39.760727 17.040312 19.880363   T T T
41.180752 18.460339 21.300390   T T T
42.600777 17.040312 19.880363   T T T
44.020802 18.460339 21.300390   T T T
45.440830 17.040312 19.880363   T T T
46.860855 18.460339 21.300390   T T T
48.280884 17.040312 19.880363   T T T
49.700909 18.460339 21.300390   T T T
7.100130 21.300390 21.300390   T T T
8.520155 19.880363 19.880363   T T T
9.940182 21.300390 21.300390   T T T
11.360209 19.880363 19.880363   T T T
12.780233 21.300390 21.300390   T T T
14.200259 19.880363 19.880363   T T T
15.620285 21.300390 21.300390   T T T
17.040312 19.880363 19.880363   T T T
18.460339 21.300390 21.300390   T T T
19.880363 19.880363 19.880363   T T T
21.300390 21.300390 21.300390   T T T
22.720415 19.880363 19.880363   T T T
24.140442 21.300390 21.300390   T T T
25.560467 19.880363 19.880363   T T T
26.980494 21.300390 21.300390   T T T
28.400518 19.880363 19.880363   T T T
29.820545 21.300390 21.300390   T T T
31.240570 19.880363 19.880363   T T T
32.660595 21.300390 21.300390   T T T
34.080624 19.880363 19.880363   T T T
35.500648 21.300390 21.300390   T T T
36.920673 19.880363 19.880363   T T T
38.340698 21.300390 21.300390   T T T
39.760727 19.880363 19.880363   T T T
41.180752 21.300390 21.300390   T T T
42.600777 19.880363 19.880363   T T T
44.020802 21.300390 21.300390   T T T
45.440830 19.880363 19.880363   T T T
46.860855 21.300390 21.300390   T T T
48.280884 19.880363 19.880363   T T T
49.700909 21.300390 21.300390   T T T
7.100130 24.140442 21.300390   T T T
8.520155 22.720415 19.880363   T T T
9.940182 24.140442 21.300390   T T T
11.360209 22.720415 19.880363   T T T
12.780233 24.140442 21.300390   T T T
14.200259 22.720415 19.880363   T T T
15.620285 24.140442 21.300390   T T T
17.040312 22.720415 19.880363   T T T
18.460339 24.140442 21.300390   T T T
19.880363 22.720415 19.880363   T T T
21.300390 24.140442 21.300390   T T T
22.720415 22.720415 19.880363   T T T
24.140442 24.140442 21.300390   T T T
25.560467 22.720415 19.880363   T T T
26.980494 24.140442 21.300390   T T T
28.400518 22.720415 19.880363   T T T
29.820545 24.140442 21.300390   T T T
31.240570 22.720415 19.880363   T T T
32.660595 24.140442 21.300390   T T T
34.080624 22.720415 19.880363   T T T
35.500648 24.140442 21.300390   T T T
36.920673 22.720415 19.880363   T T T
38.340698 24.140442 21.300390   T T T
39.760727 22.720415 19.880363   T T T
41.180752 24.140442 21.300390   T T T
42.600777 22.720415 19.880363   T T T
44.020802 24.140442 21.300390   T T T
45.440830 22.720415 19.880363   T T T
46.860855 24.140442 21.300390   T T T
48.280884 22.720415 19.880363   T T T
49.700909 24.140442 21.300390   T T T
7.100130 26.980494 21.300390   T T T
8.520155 25.560467 19.880363   T T T
9.940182 26.980494 21.300390   T T T
11.360209 25.560467 19.880363   T T T
12.780233 26.980494 21.300390   T T T
14.200259 25.560467 19.880363   T T T
15.620285 26.980494 21.300390   T T T
17.040312 25.560467 19.880363   T T T
18.460339 26.980494 21.300390   T T T
19.880363 25.560467 19.880363   T T T
21.300390 26.980494 21.300390   T T T
22.720415 25.560467 19.880363   T T T
24.140442 26.980494 21.300390   T T T
25.560467 25.560467 19.880363   T T T
26.980494 26.980494 21.300390   T T T
28.400518 25.560467 19.880363   T T T
29.820545 26.980494 21.300390   T T T
31.240570 25.560467 19.880363   T T T
32.660595 26.980494 21.300390   T T T
34.080624 25.560467 19.880363   T T T
35.500648 26.980494 21.300390   T T T
36.920673 25.560467 19.880363   T T T
38.340698 26.980494 21.300390   T T T
39.760727 25.560467 19.880363   T T T
41.180752 26.980494 21.300390   T T T
42.600777 25.560467 19.880363   T T T
44.020802 26.980494 21.300390   T T T
45.440830 25.560467 19.880363   T T T
46.860855 26.980494 21.300390   T T T
48.280884 25.560467 19.880363   T T T
49.700909 26.980494 21.300390   T T T
7.100130 29.820545 21.300390   T T T
8.520155 28.400518 19.880363   T T T
9.940182 29.820545 21.300390   T T T
11.360209 28.400518 19.880363   T T T
12.780233 29.820545 21.300390   T T T
14.200259 28.400518 19.880363   T T T
15.620285 29.820545 21.300390   T T T
17.040312 28.400518 19.880363   T T T
18.460339 29.820545 21.300390   T T T
19.880363 28.400518 19.880363   T T T
21.300390 29.820545 21.300390   T T T
22.720415 28.400518 19.880363   T T T
24.140442 29.820545 21.300390   T T T
25.560467 28.400518 19.880363   T T T
26.980494 29.820545 21.300390   T T T
28.400518 28.400518 19.880363   T T T
29.820545 29.820545 21.300390   T T T
31.240570 28.400518 19.880363   T T T
32.660595 29.820545 21.300390   T T T
34.080624 28.400518 19.880363   T T T
35.500648 29.820545 21.300390   T T T
36.920673 28.400518 19.880363   T T T
38.340698 29.820545 21.300390   T T T
39.760727 28.400518 19.880363   T T T
41.180752 29.820545 21.300390   T T T
42.600777 28.400518 19.880363   T T T
44.020802 29.820545 21.300390   T T T
45.440830 28.400518 19.880363   T T T
46.860855 29.820545 21.300390   T T T
48.280884 28.400518 19.880363   T T T
49.700909 29.820545 21.300390   T T T
7.100130 32.660595 21.300390   T T T
8.520155 31.240570 19.880363   T T T
9.940182 32.660595 21.300390   T T T
11.360209 31.240570 19.880363   T T T
12.780233 32.660595 21.300390   T T T
14.200259 31.240570 19.880363   T T T
15.620285 32.660595 21.300390   T T T
17.040312 31.240570 19.880363   T T T
18.460339 32.660595 21.300390   T T T
19.880363 31.240570 19.880363   T T T
21.300390 32.660595 21.300390   T T T
22.720415 31.240570 19.880363   T T T
24.140442 32.660595 21.300390   T T T
25.560467 31.240570 19.880363   T T T
26.980494 32.660595 21.300390   T T T
28.400518 31.240570 19.880363   T T T
29.820545 32.660595 21.300390   T T T
31.240570 31.240570 19.880363   T T T
32.660595 32.660595 21.300390   T T T
34.080624 31.240570 19.880363   T T T
35.500648 32.660595 21.300390   T T T
36.920673 31.240570 19.880363   T T T
38.340698 32.660595 21.300390   T T T
39.760727 31.240570 19.880363   T T T
41.180752 32.660595 21.300390   T T T
42.600777 31.240570 19.880363   T T T
44.020802 32.660595 21.300390   T T T
45.440830 31.240570 19.880363   T T T
46.860855 32.660595 21.300390   T T T
48.280884 31.240570 19.880363   T T T
49.700909 32.660595 21.300390   T T T
7.100130 35.500648 21.300390   T T T
8.520155 34.080624 19.880363   T T T
9.940182 35.500648 21.300390   T T T
11.360209 34.080624 19.880363   T T T
12.780233 35.500648 21.300390   T T T
14.200259 34.080624 19.880363   T T T
15.620285 35.500648 21.300390   T T T
17.040312 34.080624 19.880363   T T T
18.460339 35.500648 21.300390   T T T
19.880363 34.080624 19.880363   T T T
21.300390 35.500648 21.300390   T T T
22.720415 34.080624 19.880363   T T T
24.140442 35.500648 21.300390   T T T
25.560467 34.080624 19.880363   T T T
26.980494 35.500648 21.300390   T T T
28.400518 34.080624 19.880363   T T T
29.820545 35.500648 21.300390   T T T
31.240570 34.080624 19.880363   T T T
32.660595 35.500648 21.300390   T T T
34.080624 34.080624 19.880363   T T T
35.500648 35.500648 21.300390   T T T
36.920673 34.080624 19.880363   T T T
38.340698 35.500648 21.300390   T T T
39.760727 34.080624 19.880363   T T T
41.180752 35.500648 21.300390   T T T
42.600777 34.080624 19.880363   T T T
44.020802 35.500648 21.300390   T T T
45.440830 34.080624 19.880363   T T T
46.860855 35.500648 21.300390   T T T
48.280884 34.080624 19.880363   T T T
49.700909 35.500648 21.300390   T T T
7.100130 38.340698 21.300390   T T T
8.520155 36.920673 19.880363   T T T
9.940182 38.340698 21.300390   T T T
11.360209 36.920673 19.880363   T T T
12.780233 38.340698 21.300390   T T T
14.200259 36.920673 19.880363   T T T
15.620285 38.340698 21.300390   T T T
17.040312 36.920673 19.880363   T T T
18.460339 38.340698 21.300390   T T T
19.880363 36.920673 19.880363   T T T
21.300390 38.340698 21.300390   T T T
22.720415 36.920673 19.880363   T T T
24.140442 38.340698 21.300390   T T T
25.560467 36.920673 19.880363   T T T
26.980494 38.340698 21.300390   T T T
28.400518 36.920673 19.880363   T T T
29.820545 38.340698 21.300390   T T T
31.240570 36.920673 19.880363   T T T
32.660595 38.340698 21.300390   T T T
34.080624 36.920673 19.880363   T T T
35.500648 38.340698 21.300390   T T T
36.920673 36.920673 19.880363   T T T
38.340698 38.340698 21.300390   T T T
39.760727 36.920673 19.880363   T T T
41.180752 38.340698 21.300390   T T T
42.600777 36.920673 19.880363   T T T
44.020802 38.340698 21.300390   T T T
45.440830 36.920673 19.880363   T T T
46.860855 38.340698 21.300390   T T T
48.280884 36.920673 19.880363   T T T
49.700909 38.340698 21.300390   T T T
8.520155 39.760727 19.880363   T T T
9.940182 41.180752 21.300390   T T T
11.360209 39.760727 19.880363   T T T
12.780233 41.180752 21.300390   T T T
14.200259 39.760727 19.880363   T T T
15.620285 41.180752 21.300390   T T T
17.040312 39.760727 19.880363   T T T
18.460339 41.180752 21.300390   T T T
19.880363 39.760727 19.880363   T T T
21.300390 41.180752 21.300390   T T T
22.720415 39.760727 19.880363   T T T
24.140442 41.180752 21.300390   T T T
25.560467 39.760727 19.880363   T T T
26.980494 41.180752 21.300390   T T T
28.400518 39.760727 19.880363   T T T
29.820545 41.180752 21.300390   T T T
31.240570 39.760727 19.880363   T T T
32.660595 41.180752 21.300390   T T T
34.080624 39.760727 19.880363   T T T
35.500648 41.180752 21.300390   T T T
36.920673 39.760727 19.880363   T T T
38.340698 41.180752 21.300390   T T T
39.760727 39.760727 19.880363   T T T
41.180752 41.180752 21.300390   T T T
42.600777 39.760727 19.880363   T T T
44.020802 41.180752 21.300390   T T T
45.440830 39.760727 19.880363   T T T
46.860855 41.180752 21.300390   T T T
48.280884 39.760727 19.880363   T T T
11.360209 42.600777 19.880363   T T T
12.780233 44.020802 21.300390   T T T
14.200259 42.600777 19.880363   T T T
15.620285 44.020802 21.300390   T T T
17.040312 42.600777 19.880363   T T T
18.460339 44.020802 21.300390   T T T
19.880363 42.600777 19.880363   T T T
21.300390 44.020802 21.300390   T T T
22.720415 42.600777 19.880363   T T T
24.140442 44.020802 21.300390   T T T
25.560467 42.600777 19.880363   T T T
26.980494 44.020802 21.300390   T T T
28.400518 42.600777 19.880363   T T T
29.820545 44.020802 21.300390   T T T
31.240570 42.600777 19.880363   T T T
32.660595 44.020802 21.300390   T T T
34.080624 42.600777 19.880363   T T T
35.500648 44.020802 21.300390   T T T
36.920673 42.600777 19.880363   T T T
38.340698 44.020802 21.300390   T T T
39.760727 42.600777 19.880363   T T T
41.180752 44.020802 21.300390   T T T
42.600777 42.600777 19.880363   T T T
44.020802 44.020802 21.300390   T T T
45.440830 42.600777 19.880363   T T T
14.200259 45.440830 19.880363   T T T
15.620285 46.860855 21.300390   T T T
17.040312 45.440830 19.880363   T T T
18.460339 46.860855 21.300390   T T T
19.880363 45.440830 19.880363   T T T
21.300390 46.860855 21.300390   T T T
22.720415 45.440830 19.880363   T T T
24.140442 46.860855 21.300390   T T T
25.560467 45.440830 19.880363   T T T
26.980494 46.860855 21.300390   T T T
28.400518 45.440830 19.880363   T T T
29.820545 46.860855 21.300390   T T T
31.240570 45.440830 19.880363   T T T
32.660595 46.860855 21.300390   T T T
34.080624 45.440830 19.880363   T T T
35.500648 46.860855 21.300390   T T T
36.920673 45.440830 19.880363   T T T
38.340698 46.860855 21.300390   T T T
39.760727 45.440830 19.880363   T T T
41.180752 46.860855 21.300390   T T T
42.600777 45.440830 19.880363   T T T
17.040312 48.280884 19.880363   T T T
18.460339 49.700909 21.300390   T T T
19.880363 48.280884 19.880363   T T T
21.300390 49.700909 21.300390   T T T
22.720415 48.280884 19.880363   T T T
24.140442 49.700909 21.300390   T T T
25.560467 48.280884 19.880363   T T T
26.980494 49.700909 21.300390   T T T
28.400518 48.280884 19.880363   T T T
29.820545 49.700909 21.300390   T T T
31.240570 48.280884 19.880363   T T T
32.660595 49.700909 21.300390   T T T
34.080624 48.280884 19.880363   T T T
35.500648 49.700909 21.300390   T T T
36.920673 48.280884 19.880363   T T T
38.340698 49.700909 21.300390   T T T
39.760727 48.280884 19.880363   T T T
18.460339 7.100130 24.140442   T T T
21.300390 7.100130 24.140442   T T T
24.140442 7.100130 24.140442   T T T
26.980494 7.100130 24.140442   T T T
29.820545 7.100130 24.140442   T T T
32.660595 7.100130 24.140442   T T T
35.500648 7.100130 24.140442   T T T
38.340698 7.100130 24.140442   T T T
15.620285 9.940182 24.140442   T T T
17.040312 8.520155 22.720415   T T T
18.460339 9.940182 24.140442   T T T
19.880363 8.520155 22.720415   T T T
21.300390 9.940182 24.140442   T T T
22.720415 8.520155 22.720415   T T T
24.140442 9.940182 24.140442   T T T
25.560467 8.520155 22.720415   T T T
26.980494 9.940182 24.140442   T T T
28.400518 8.520155 22.720415   T T T
29.820545 9.940182 24.140442   T T T
31.240570 8.520155 22.720415   T T T
32.660595 9.940182 24.140442   T T T
34.080624 8.520155 22.720415   T T T
35.500648 9.940182 24.140442   T T T
36.920673 8.520155 22.720415   T T T
38.340698 9.940182 24.140442   T T T
39.760727 8.520155 22.720415   T T T
41.180752 9.940182 24.140442   T T T
12.780233 12.780233 24.140442   T T T
14.200259 11.360209 22.720415   T T T
15.620285 12.780233 24.140442   T T T
17.040312 11.360209 22.720415   T T T
18.460339 12.780233 24.140442   T T T
19.880363 11.360209 22.720415   T T T
21.300390 12.780233 24.140442   T T T
22.720415 11.360209 22.720415   T T T
24.140442 12.780233 24.140442   T T T
25.560467 11.360209 22.720415   T T T
26.980494 12.780233 24.140442   T T T
28.400518 11.360209 22.720415   T T T
29.820545 12.780233 24.140442   T T T
31.240570 11.360209 22.720415   T T T
32.660595 12.780233 24.140442   T T T
34.080624 11.360209 22.720415   T T T
35.500648 12.780233 24.140442   T T T
36.920673 11.360209 22.720415   T T T
38.340698 12.780233 24.140442   T T T
39.760727 11.360209 22.720415   T T T
41.180752 12.780233 24.140442   T T T
42.600777 11.360209 22.720415   T T T
44.020802 12.780233 24.140442   T T T
9.940182 15.620285 24.140442   T T T
11.360209 14.200259 22.720415   T T T
12.780233 15.620285 24.140442   T T T
14.200259 14.200259 22.720415   T T T
15.620285 15.620285 24.140442   T T T
17.040312 14.200259 22.720415   T T T
18.460339 15.620285 24.140442   T T T
19.880363 14.200259 22.720415   T T T
21.300390 15.620285 24.140442   T T T
22.720415 14.200259 22.720415   T T T
24.140442 15.620285 24.140442   T T T
25.560467 14.200259 22.720415   T T T
26.980494 15.620285 24.140442   T T T
28.400518 14.200259 22.720415   T T T
29.820545 15.620285 24.140442   T T T
31.240570 14.200259 22.720415   T T T
32.660595 15.620285 24.140442   T T T
34.080624 14.200259 22.720415   T T T
35.500648 15.620285 24.140442   T T T
36.920673 14.200259 22.720415   T T T
38.340698 15.620285 24.140442   T T T
39.760727 14.200259 22.720415   T T T
41.180752 15.620285 24.140442   T T T
42.600777 14.200259 22.720415   T T T
44.020802 15.620285 24.140442   T T T
45.440830 14.200259 22.720415   T T T
46.860855 15.620285 24.140442   T T T
7.100130 18.460339 24.140442   T T T
8.520155 17.040312 22.720415   T T T
9.940182 18.460339 24.140442   T T T
11.360209 17.040312 22.720415   T T T
12.780233 18.460339 24.140442   T T T
14.200259 17.040312 22.720415   T T T
15.620285 18.460339 24.140442   T T T
17.040312 17.040312 22.720415   T T T
18.460339 18.460339 24.140442   T T T
19.880363 17.040312 22.720415   T T T
21.300390 18.460339 24.140442   T T T
22.720415 17.040312 22.720415   T T T
24.140442 18.460339 24.140442   T T T
25.560467 17.040312 22.720415   T T T
26.980494 18.460339 24.140442   T T T
28.400518 17.040312 22.720415   T T T
29.820545 18.460339 24.140442   T T T
31.240570 17.040312 22.720415   T T T
32.660595 18.460339 24.140442   T T T
34.080624 17.040312 22.720415   T T T
35.500648 18.460339 24.140442   T T T
36.920673 17.040312 22.720415   T T T
38.340698 18.460339 24.140442   T T T
39.760727 17.040312 22.720415   T T T
41.180752 18.460339 24.140442   T T T
42.600777 17.040312 22.720415   T T T
44.020802 18.460339 24.140442   T T T
45.440830 17.040312 22.720415   T T T
46.860855 18.460339 24.140442   T T T
48.280884 17.040312 22.720415   T T T
49.700909 18.460339 24.140442   T T T
7.100130 21.300390 24.140442   T T T
8.520155 19.880363 22.720415   T T T
9.940182 21.300390 24.140442   T T T
11.360209 19.880363 22.720415   T T T
12.780233 21.300390 24.140442   T T T
14.200259 19.880363 22.720415   T T T
15.620285 21.300390 24.140442   T T T
17.040312 19.880363 22.720415   T T T
18.460339 21.300390 24.140442   T T T
19.880363 19.880363 22.720415   T T T
21.300390 21.300390 24.140442   T T T
22.720415 19.880363 22.720415   T T T
24.140442 21.300390 24.140442   T T T
25.560467 19.880363 22.720415   T T T
26.980494 21.300390 24.140442   T T T
28.400518 19.880363 22.720415   T T T
29.820545 21.300390 24.140442   T T T
31.240570 19.880363 22.720415   T T T
32.660595 21.300390 24.140442   T T T
34.080624 19.880363 22.720415   T T T
35.500648 21.300390 24.140442   T T T
36.920673 19.880363 22.720415   T T T
38.340698 21.300390 24.140442   T T T
39.760727 19.880363 22.720415   T T T
41.180752 21.300390 24.140442   T T T
42.600777 19.880363 22.720415   T T T
44.020802 21.300390 24.140442   T T T
45.440830 19.880363 22.720415   T T T
46.860855 21.300390 24.140442   T T T
48.280884 19.880363 22.720415   T T T
49.700909 21.300390 24.140442   T T T
7.100130 24.140442 24.140442   T T T
8.520155 22.720415 22.720415   T T T
9.940182 24.140442 24.140442   T T T
11.360209 22.720415 22.720415   T T T
12.780233 24.140442 24.140442   T T T
14.200259 22.720415 22.720415   T T T
15.620285 24.140442 24.140442   T T T
17.040312 22.720415 22.720415   T T T
18.460339 24.140442 24.140442   T T T
19.880363 22.720415 22.720415   T T T
21.300390 24.140442 24.140442   T T T
22.720415 22.720415 22.720415   T T T
24.140442 24.140442 24.140442   T T T
25.560467 22.720415 22.720415   T T T
26.980494 24.140442 24.140442   T T T
28.400518 22.720415 22.720415   T T T
29.820545 24.140442 24.140442   T T T
31.240570 22.720415 22.720415   T T T
32.660595 24.140442 24.140442   T T T
34.080624 22.720415 22.720415   T T T
35.500648 24.140442 24.140442   T T T
36.920673 22.720415 22.720415   T T T
38.340698 24.140442 24.140442   T T T
39.760727 22.720415 22.720415   T T T
41.180752 24.140442 24.140442   T T T
42.600777 22.720415 22.720415   T T T
44.020802 24.140442 24.140442   T T T
45.440830 22.720415 22.720415   T T T
46.860855 24.140442 24.140442   T T T
48.280884 22.720415 22.720415   T T T
49.700909 24.140442 24.140442   T T T
7.100130 26.980494 24.140442   T T T
8.520155 25.560467 22.720415   T T T
9.940182 26.980494 24.140442   T T T
11.360209 25.560467 22.720415   T T T
12.780233 26.980494 24.140442   T T T
14.200259 25.560467 22.720415   T T T
15.620285 26.980494 24.140442   T T T
17.040312 25.560467 22.720415   T T T
18.460339 26.980494 24.140442   T T T
19.880363 25.560467 22.720415   T T T
21.300390 26.980494 24.140442   T T T
22.720415 25.560467 22.720415   T T T
24.140442 26.980494 24.140442   T T T
25.560467 25.560467 22.720415   T T T
26.980494 26.980494 24.140442   T T T
28.400518 25.560467 22.720415   T T T
29.820545 26.980494 24.140442   T T T
31.240570 25.560467 22.720415   T T T
32.660595 26.980494 24.140442   T T T
34.080624 25.560467 22.720415   T T T
35.500648 26.980494 24.140442   T T T
36.920673 25.560467 22.720415   T T T
38.340698 26.980494 24.140442   T T T
39.760727 25.560467 22.720415   T T T
41.180752 26.980494 24.140442   T T T
42.600777 25.560467 22.720415   T T T
44.020802 26.980494 24.140442   T T T
45.440830 25.560467 22.720415   T T T
46.860855 26.980494 24.140442   T T T
48.280884 25.560467 22.720415   T T T
49.700909 26.980494 24.140442   T T T
7.100130 29.820545 24.140442   T T T
8.520155 28.400518 22.720415   T T T
9.940182 29.820545 24.140442   T T T
11.360209 28.400518 22.720415   T T T
12.780233 29.820545 24.140442   T T T
14.200259 28.400518 22.720415   T T T
15.620285 29.820545 24.140442   T T T
17.040312 28.400518 22.720415   T T T
18.460339 29.820545 24.140442   T T T
19.880363 28.400518 22.720415   T T T
21.300390 29.820545 24.140442   T T T
22.720415 28.400518 22.720415   T T T
24.140442 29.820545 24.140442   T T T
25.560467 28.400518 22.720415   T T T
26.980494 29.820545 24.140442   T T T
28.400518 28.400518 22.720415   T T T
29.820545 29.820545 24.140442   T T T
31.240570 28.400518 22.720415   T T T
32.660595 29.820545 24.140442   T T T
34.080624 28.400518 22.720415   T T T
35.500648 29.820545 24.140442   T T T
36.920673 28.400518 22.720415   T T T
38.340698 29.820545 24.140442   T T T
39.760727 28.400518 22.720415   T T T
41.180752 29.820545 24.140442   T T T
42.600777 28.400518 22.720415   T T T
44.020802 29.820545 24.140442   T T T
45.440830 28.400518 22.720415   T T T
46.860855 29.820545 24.140442   T T T
48.280884 28.400518 22.720415   T T T
49.700909 29.820545 24.140442   T T T
7.100130 32.660595 24.140442   T T T
8.520155 31.240570 22.720415   T T T
9.940182 32.660595 24.140442   T T T
11.360209 31.240570 22.720415   T T T
12.780233 32.660595 24.140442   T T T
14.200259 31.240570 22.720415   T T T
15.620285 32.660595 24.140442   T T T
17.040312 31.240570 22.720415   T T T
18.460339 32.660595 24.140442   T T T
19.880363 31.240570 22.720415   T T T
21.300390 32.660595 24.140442   T T T
22.720415 31.240570 22.720415   T T T
24.140442 32.660595 24.140442   T T T
25.560467 31.240570 22.720415   T T T
26.980494 32.660595 24.140442   T T T
28.400518 31.240570 22.720415   T T T
29.820545 32.660595 24.140442   T T T
31.240570 31.240570 22.720415   T T T
32.660595 32.660595 24.140442   T T T
34.080624 31.240570 22.720415   T T T
35.500648 32.660595 24.140442   T T T
36.920673 31.240570 22.720415   T T T
38.340698 32.660595 24.140442   T T T
39.760727 31.240570 22.720415   T T T
41.180752 32.660595 24.140442   T T T
42.600777 31.240570 22.720415   T T T
44.020802 32.660595 24.140442   T T T
45.440830 31.240570 22.720415   T T T
46.860855 32.660595 24.140442   T T T
48.280884 31.240570 22.720415   T T T
49.700909 32.660595 24.140442   T T T
7.100130 35.500648 24.140442   T T T
8.520155 34.080624 22.720415   T T T
9.940182 35.500648 24.140442   T T T
11.360209 34.080624 22.720415   T T T
12.780233 35.500648 24.140442   T T T
14.200259 34.080624 22.720415   T T T
15.620285 35.500648 24.140442   T T T
17.040312 34.080624 22.720415   T T T
18.460339 35.500648 24.140442   T T T
19.880363 34.080624 22.720415   T T T
21.300390 35.500648 24.140442   T T T
22.720415 34.080624 22.720415   T T T
24.140442 35.500648 24.140442   T T T
25.560467 34.080624 22.720415   T T T
26.980494 35.500648 24.140442   T T T
28.400518 34.080624 22.720415   T T T
29.820545 35.500648 24.140442   T T T
31.240570 34.080624 22.720415   T T T
32.660595 35.500648 24.140442   T T T
34.080624 34.080624 22.720415   T T T
35.500648 35.500648 24.140442   T T T
36.920673 34.080624 22.720415   T T T
38.340698 35.500648 24.140442   T T T
39.760727 34.080624 22.720415   T T T
41.180752 35.500648 24.140442   T T T
42.600777 34.080624 22.720415   T T T
44.020802 35.500648 24.140442   T T T
45.440830 34.080624 22.720415   T T T
46.860855 35.500648 24.140442   T T T
48.280884 34.080624 22.720415   T T T
49.700909 35.500648 24.140442   T T T
7.100130 38.340698 24.140442   T T T
8.520155 36.920673 22.720415   T T T
9.940182 38.340698 24.140442   T T T
11.360209 36.920673 22.720415   T T T
12.780233 38.340698 24.140442   T T T
14.200259 36.920673 22.720415   T T T
15.620285 38.340698 24.140442   T T T
17.040312 36.920673 22.720415   T T T
18.460339 38.340698 24.140442   T T T
19.880363 36.920673 22.720415   T T T
21.300390 38.340698 24.140442   T T T
22.720415 36.920673 22.720415   T T T
24.140442 38.340698 24.140442   T T T
25.560467 36.920673 22.720415   T T T
26.980494 38.340698 24.140442   T T T
28.400518 36.920673 22.720415   T T T
29.820545 38.340698 24.140442   T T T
31.240570 36.920673 22.720415   T T T
32.660595 38.340698 24.140442   T T T
34.080624 36.920673 22.720415   T T T
35.500648 38.340698 24.140442   T T T
36.920673 36.920673 22.720415   T T T
38.340698 38.340698 24.140442   T T T
39.760727 36.920673 22.720415   T T T
41.180752 38.340698 24.140442   T T T
42.600777 36.920673 22.720415   T T T
44.020802 38.340698 24.140442   T T T
45.440830 36.920673 22.720415   T T T
46.860855 38.340698 24.140442   T T T
48.280884 36.920673 22.720415   T T T
49.700909 38.340698 24.140442   T T T
8.520155 39.760727 22.720415   T T T
9.940182 41.180752 24.140442   T T T
11.360209 39.760727 22.720415   T T T
12.780233 41.180752 24.140442   T T T
14.200259 39.760727 22.720415   T T T
15.620285 41.180752 24.140442   T T T
17.040312 39.760727 22.720415   T T T
18.460339 41.180752 24.140442   T T T
19.880363 39.760727 22.720415   T T T
21.300390 41.180752 24.140442   T T T
22.720415 39.760727 22.720415   T T T
24.140442 41.180752 24.140442   T T T
25.560467 39.760727 22.720415   T T T
26.980494 41.180752 24.140442   T T T
28.400518 39.760727 22.720415   T T T
29.820545 41.180752 24.140442   T T T
31.240570 39.760727 22.720415   T T T
32.660595 41.180752 24.140442   T T T
34.080624 39.760727 22.720415   T T T
35.500648 41.180752 24.140442   T T T
36.920673 39.760727 22.720415   T T T
38.340698 41.180752 24.140442   T T T
39.760727 39.760727 22.720415   T T T
41.180752 41.180752 24.140442   T T T
42.600777 39.760727 22.720415   T T T
44.020802 41.180752 24.140442   T T T
45.440830 39.760727 22.720415   T T T
46.860855 41.180752 24.140442   T T T
48.280884 39.760727 22.720415   T T T
11.360209 42.600777 22.720415   T T T
12.780233 44.020802 24.140442   T T T
14.200259 42.600777 22.720415   T T T
15.620285 44.020802 24.140442   T T T
17.040312 42.600777 22.720415   T T T
18.460339 44.020802 24.140442   T T T
19.880363 42.600777 22.720415   T T T
21.300390 44.020802 24.140442   T T T
22.720415 42.600777 22.720415   T T T
24.140442 44.020802 24.140442   T T T
25.560467 42.600777 22.720415   T T T
26.980494 44.020802 24.140442   T T T
28.400518 42.600777 22.720415   T T T
29.820545 44.020802 24.140442   T T T
31.240570 42.600777 22.720415   T T T
32.660595 44.020802 24.140442   T T T
34.080624 42.600777 22.720415   T T T
35.500648 44.020802 24.140442   T T T
36.920673 42.600777 22.720415   T T T
38.340698 44.020802 24.140442   T T T
39.760727 42.600777 22.720415   T T T
41.180752 44.020802 24.140442   T T T
42.600777 42.600777 22.720415   T T T
44.020802 44.020802 24.140442   T T T
45.440830 42.600777 22.720415   T T T
14.200259 45.440830 22.720415   T T T
15.620285 46.860855 24.140442   T T T
17.040312 45.440830 22.720415   T T T
18.460339 46.860855 24.140442   T T T
19.880363 45.440830 22.720415   T T T
21.300390 46.860855 24.140442   T T T
22.720415 45.440830 22.720415   T T T
24.140442 46.860855 24.140442   T T T
25.560467 45.440830 22.720415   T T T
26.980494 46.860855 24.140442   T T T
28.400518 45.440830 22.720415   T T T
29.820545 46.860855 24.140442   T T T
31.240570 45.440830 22.720415   T T T
32.660595 46.860855 24.140442   T T T
34.080624 45.440830 22.720415   T T T
35.500648 46.860855 24.140442   T T T
36.920673 45.440830 22.720415   T T T
38.340698 46.860855 24.140442   T T T
39.760727 45.440830 22.720415   T T T
41.180752 46.860855 24.140442   T T T
42.600777 45.440830 22.720415   T T T
17.040312 48.280884 22.720415   T T T
18.460339 49.700909 24.140442   T T T
19.880363 48.280884 22.720415   T T T
21.300390 49.700909 24.140442   T T T
22.720415 48.280884 22.720415   T T T
24.140442 49.700909 24.140442   T T T
25.560467 48.280884 22.720415   T T T
26.980494 49.700909 24.140442   T T T
28.400518 48.280884 22.720415   T T T
29.820545 49.700909 24.140442   T T T
31.240570 48.280884 22.720415   T T T
32.660595 49.700909 24.140442   T T T
34.080624 48.280884 22.720415   T T T
35.500648 49.700909 24.140442   T T T
36.920673 48.280884 22.720415   T T T
38.340698 49.700909 24.140442   T T T
39.760727 48.280884 22.720415   T T T
18.460339 7.100130 26.980494   T T T
21.300390 7.100130 26.980494   T T T
24.140442 7.100130 26.980494   T T T
26.980494 7.100130 26.980494   T T T
29.820545 7.100130 26.980494   T T T
32.660595 7.100130 26.980494   T T T
35.500648 7.100130 26.980494   T T T
38.340698 7.100130 26.980494   T T T
15.620285 9.940182 26.980494   T T T
17.040312 8.520155 25.560467   T T T
18.460339 9.940182 26.980494   T T T
19.880363 8.520155 25.560467   T T T
21.300390 9.940182 26.980494   T T T
22.720415 8.520155 25.560467   T T T
24.140442 9.940182 26.980494   T T T
25.560467 8.520155 25.560467   T T T
26.980494 9.940182 26.980494   T T T
28.400518 8.520155 25.560467   T T T
29.820545 9.940182 26.980494   T T T
31.240570 8.520155 25.560467   T T T
32.660595 9.940182 26.980494   T T T
34.080624 8.520155 25.560467   T T T
35.500648 9.940182 26.980494   T T T
36.920673 8.520155 25.560467   T T T
38.340698 9.940182 26.980494   T T T
39.760727 8.520155 25.560467   T T T
41.180752 9.940182 26.980494   T T T
12.780233 12.780233 26.980494   T T T
14.200259 11.360209 25.560467   T T T
15.620285 12.780233 26.980494   T T T
17.040312 11.360209 25.560467   T T T
18.460339 12.780233 26.980494   T T T
19.880363 11.360209 25.560467   T T T
21.300390 12.780233 26.980494   T T T
22.720415 11.360209 25.560467   T T T
24.140442 12.780233 26.980494   T T T
25.560467 11.360209 25.560467   T T T
26.980494 12.780233 26.980494   T T T
28.400518 11.360209 25.560467   T T T
29.820545 12.780233 26.980494   T T T
31.240570 11.360209 25.560467   T T T
32.660595 12.780233 26.980494   T T T
34.080624 11.360209 25.560467   T T T
35.500648 12.780233 26.980494   T T T
36.920673 11.360209 25.560467   T T T
38.340698 12.780233 26.980494   T T T
39.760727 11.360209 25.560467   T T T
41.180752 12.780233 26.980494   T T T
42.600777 11.360209 25.560467   T T T
44.020802 12.780233 26.980494   T T T
9.940182 15.620285 26.980494   T T T
11.360209 14.200259 25.560467   T T T
12.780233 15.620285 26.980494   T T T
14.200259 14.200259 25.560467   T T T
15.620285 15.620285 26.980494   T T T
17.040312 14.200259 25.560467   T T T
18.460339 15.620285 26.980494   T T T
19.880363 14.200259 25.560467   T T T
21.300390 15.620285 26.980494   T T T
22.720415 14.200259 25.560467   T T T
24.140442 15.620285 26.980494   T T T
25.560467 14.200259 25.560467   T T T
26.980494 15.620285 26.980494   T T T
28.400518 14.200259 25.560467   T T T
29.820545 15.620285 26.980494   T T T
31.240570 14.200259 25.560467   T T T
32.660595 15.620285 26.980494   T T T
34.080624 14.200259 25.560467   T T T
35.500648 15.620285 26.980494   T T T
36.920673 14.200259 25.560467   T T T
38.340698 15.620285 26.980494   T T T
39.760727 14.200259 25.560467   T T T
41.180752 15.620285 26.980494   T T T
42.600777 14.200259 25.560467   T T T
44.020802 15.620285 26.980494   T T T
45.440830 14.200259 25.560467   T T T
46.860855 15.620285 26.980494   T T T
7.100130 18.460339 26.980494   T T T
8.520155 17.040312 25.560467   T T T
9.940182 18.460339 26.980494   T T T
11.360209 17.040312 25.560467   T T T
12.780233 18.460339 26.980494   T T T
14.200259 17.040312 25.560467   T T T
15.620285 18.460339 26.980494   T T T
17.040312 17.040312 25.560467   T T T
18.460339 18.460339 26.980494   T T T
19.880363 17.040312 25.560467   T T T
21.300390 18.460339 26.980494   T T T
22.720415 17.040312 25.560467   T T T
24.140442 18.460339 26.980494   T T T
25.560467 17.040312 25.560467   T T T
26.980494 18.460339 26.980494   T T T
28.400518 17.040312 25.560467   T T T
29.820545 18.460339 26.980494   T T T
31.240570 17.040312 25.560467   T T T
32.660595 18.460339 26.980494   T T T
34.080624 17.040312 25.560467   T T T
35.500648 18.460339 26.980494   T T T
36.920673 17.040312 25.560467   T T T
38.340698 18.460339 26.980494   T T T
39.760727 17.040312 25.560467   T T T
41.180752 18.460339 26.980494   T T T
42.600777 17.040312 25.560467   T T T
44.020802 18.460339 26.980494   T T T
45.440830 17.040312 25.560467   T T T
46.860855 18.460339 26.980494   T T T
48.280884 17.040312 25.560467   T T T
49.700909 18.460339 26.980494   T T T
7.100130 21.300390 26.980494   T T T
8.520155 19.880363 25.560467   T T T
9.940182 21.300390 26.980494   T T T
11.360209 19.880363 25.560467   T T T
12.780233 21.300390 26.980494   T T T
14.200259 19.880363 25.560467   T T T
15.620285 21.300390 26.980494   T T T
17.040312 19.880363 25.560467   T T T
18.460339 21.300390 26.980494   T T T
19.880363 19.880363 25.560467   T T T
21.300390 21.300390 26.980494   T T T
22.720415 19.880363 25.560467   T T T
24.140442 21.300390 26.980494   T T T
25.560467 19.880363 25.560467   T T T
26.980494 21.300390 26.980494   T T T
28.400518 19.880363 25.560467   T T T
29.820545 21.300390 26.980494   T T T
31.240570 19.880363 25.560467   T T T
32.660595 21.300390 26.980494   T T T
34.080624 19.880363 25.560467   T T T
35.500648 21.300390 26.980494   T T T
36.920673 19.880363 25.560467   T T T
38.340698 21.300390 26.980494   T T T
39.760727 19.880363 25.560467   T T T
41.180752 21.300390 26.980494   T T T
42.600777 19.880363 25.560467   T T T
44.020802 21.300390 26.980494   T T T
45.440830 19.880363 25.560467   T T T
46.860855 21.300390 26.980494   T T T
48.280884 19.880363 25.560467   T T T
49.700909 21.300390 26.980494   T T T
7.100130 24.140442 26.980494   T T T
8.520155 22.720415 25.560467   T T T
9.940182 24.140442 26.980494   T T T
11.360209 22.720415 25.560467   T T T
12.780233 24.140442 26.980494   T T T
14.200259 22.720415 25.560467   T T T
15.620285 24.140442 26.980494   T T T
17.040312 22.720415 25.560467   T T T
18.460339 24.140442 26.980494   T T T
19.880363 22.720415 25.560467   T T T
21.300390 24.140442 26.980494   T T T
22.720415 22.720415 25.560467   T T T
24.140442 24.140442 26.980494   T T T
25.560467 22.720415 25.560467   T T T
26.980494 24.140442 26.980494   T T T
28.400518 22.720415 25.560467   T T T
29.820545 24.140442 26.980494   T T T
31.240570 22.720415 25.560467   T T T
32.660595 24.140442 26.980494   T T T
34.080624 22.720415 25.560467   T T T
35.500648 24.140442 26.980494   T T T
36.920673 22.720415 25.560467   T T T
38.340698 24.140442 26.980494   T T T
39.760727 22.720415 25.560467   T T T
41.180752 24.140442 26.980494   T T T
42.600777 22.720415 25.560467   T T T
44.020802 24.140442 26.980494   T T T
45.440830 22.720415 25.560467   T T T
46.860855 24.140442 26.980494   T T T
48.280884 22.720415 25.560467   T T T
49.700909 24.140442 26.980494   T T T
7.100130 26.980494 26.980494   T T T
8.520155 25.560467 25.560467   T T T
9.940182 26.980494 26.980494   T T T
11.360209 25.560467 25.560467   T T T
12.780233 26.980494 26.980494   T T T
14.200259 25.560467 25.560467   T T T
15.620285 26.980494 26.980494   T T T
17.040312 25.560467 25.560467   T T T
18.460339 26.980494 26.980494   T T T
19.880363 25.560467 25.560467   T T T
21.300390 26.980494 26.980494   T T T
22.720415 25.560467 25.560467   T T T
24.140442 26.980494 26.980494   T T T
25.560467 25.560467 25.560467   T T T
26.980494 26.980494 26.980494   T T T
28.400518 25.560467 25.560467   T T T
29.820545 26.980494 26.980494   T T T
31.240570 25.560467 25.560467   T T T
32.660595 26.980494 26.980494   T T T
34.080624 25.560467 25.560467   T T T
35.500648 26.980494 26.980494   T T T
36.920673 25.560467 25.560467   T T T
38.340698 26.980494 26.980494   T T T
39.760727 25.560467 25.560467   T T T
41.180752 26.980494 26.980494   T T T
42.600777 25.560467 25.560467   T T T
44.020802 26.980494 26.980494   T T T
45.440830 25.560467 25.560467   T T T
46.860855 26.980494 26.980494   T T T
48.280884 25.560467 25.560467   T T T
49.700909 26.980494 26.980494   T T T
7.100130 29.820545 26.980494   T T T
8.520155 28.400518 25.560467   T T T
9.940182 29.820545 26.980494   T T T
11.360209 28.400518 25.560467   T T T
12.780233 29.820545 26.980494   T T T
14.200259 28.400518 25.560467   T T T
15.620285 29.820545 26.980494   T T T
17.040312 28.400518 25.560467   T T T
18.460339 29.820545 26.980494   T T T
19.880363 28.400518 25.560467   T T T
21.300390 29.820545 26.980494   T T T
22.720415 28.400518 25.560467   T T T
24.140442 29.820545 26.980494   T T T
25.560467 28.400518 25.560467   T T T
26.980494 29.820545 26.980494   T T T
28.400518 28.400518 25.560467   T T T
29.820545 29.820545 26.980494   T T T
31.240570 28.400518 25.560467   T T T
32.660595 29.820545 26.980494   T T T
34.080624 28.400518 25.560467   T T T
35.500648 29.820545 26.980494   T T T
36.920673 28.400518 25.560467   T T T
38.340698 29.820545 26.980494   T T T
39.760727 28.400518 25.560467   T T T
41.180752 29.820545 26.980494   T T T
42.600777 28.400518 25.560467   T T T
44.020802 29.820545 26.980494   T T T
45.440830 28.400518 25.560467   T T T
46.860855 29.820545 26.980494   T T T
48.280884 28.400518 25.560467   T T T
49.700909 29.820545 26.980494   T T T
7.100130 32.660595 26.980494   T T T
8.520155 31.240570 25.560467   T T T
9.940182 32.660595 26.980494   T T T
11.360209 31.240570 25.560467   T T T
12.780233 32.660595 26.980494   T T T
14.200259 31.240570 25.560467   T T T
15.620285 32.660595 26.980494   T T T
17.040312 31.240570 25.560467   T T T
18.460339 32.660595 26.980494   T T T
19.880363 31.240570 25.560467   T T T
21.300390 32.660595 26.980494   T T T
22.720415 31.240570 25.560467   T T T
24.140442 32.660595 26.980494   T T T
25.560467 31.240570 25.560467   T T T
26.980494 32.660595 26.980494   T T T
28.400518 31.240570 25.560467   T T T
29.820545 32.660595 26.980494   T T T
31.240570 31.240570 25.560467   T T T
32.660595 32.660595 26.980494   T T T
34.080624 31.240570 25.560467   T T T
35.500648 32.660595 26.980494   T T T
36.920673 31.240570 25.560467   T T T
38.340698 32.660595 26.980494   T T T
39.760727 31.240570 25.560467   T T T
41.180752 32.660595 26.980494   T T T
42.600777 31.240570 25.560467   T T T
44.020802 32.660595 26.980494   T T T
45.440830 31.240570 25.560467   T T T
46.860855 32.660595 26.980494   T T T
48.280884 31.240570 25.560467   T T T
49.700909 32.660595 26.980494   T T T
7.100130 35.500648 26.980494   T T T
8.520155 34.080624 25.560467   T T T
9.940182 35.500648 26.980494   T T T
11.360209 34.080624 25.560467   T T T
12.780233 35.500648 26.980494   T T T
14.200259 34.080624 25.560467   T T T
15.620285 35.500648 26.980494   T T T
17.040312 34.080624 25.560467   T T T
18.460339 35.500648 26.980494   T T T
19.880363 34.080624 25.560467   T T T
21.300390 35.500648 26.980494   T T T
22.720415 34.080624 25.560467   T T T
24.140442 35.500648 26.980494   T T T
25.560467 34.080624 25.560467   T T T
26.980494 35.500648 26.980494   T T T
28.400518 34.080624 25.560467   T T T
29.820545 35.500648 26.980494   T T T
31.240570 34.080624 25.560467   T T T
32.660595 35.500648 26.980494   T T T
34.080624 34.080624 25.560467   T T T
35.500648 35.500648 26.980494   T T T
36.920673 34.080624 25.560467   T T T
38.340698 35.500648 26.980494   T T T
39.760727 34.080624 25.560467   T T T
41.180752 35.500648 26.980494   T T T
42.600777 34.080624 25.560467   T T T
44.020802 35.500648 26.980494   T T T
45.440830 34.080624 25.560467   T T T
46.860855 35.500648 26.980494   T T T
48.280884 34.080624 25.560467   T T T
49.700909 35.500648 26.980494   T T T
7.100130 38.340698 26.980494   T T T
8.520155 36.920673 25.560467   T T T
9.940182 38.340698 26.980494   T T T
11.360209 36.920673 25.560467   T T T
12.780233 38.340698 26.980494   T T T
14.200259 36.920673 25.560467   T T T
15.620285 38.340698 26.980494   T T T
17.040312 36.920673 25.560467   T T T
18.460339 38.340698 26.980494   T T T
19.880363 36.920673 25.560467   T T T
21.300390 38.340698 26.980494   T T T
22.720415 36.920673 25.560467   T T T
24.140442 38.340698 26.980494   T T T
25.560467 36.920673 25.560467   T T T
26.980494 38.340698 26.980494   T T T
28.400518 36.920673 25.560467   T T T
29.820545 38.340698 26.980494   T T T
31.240570 36.920673 25.560467   T T T
32.660595 38.340698 26.980494   T T T
34.080624 36.920673 25.560467   T T T
35.500648 38.340698 26.980494   T T T
36.920673 36.920673 25.560467   T T T
38.340698 38.340698 26.980494   T T T
39.760727 36.920673 25.560467   T T T
41.180752 38.340698 26.980494   T T T
42.600777 36.920673 25.560467   T T T
44.020802 38.340698 26.980494   T T T
45.440830 36.920673 25.560467   T T T
46.860855 38.340698 26.980494   T T T
48.280884 36.920673 25.560467   T T T
49.700909 38.340698 26.980494   T T T
8.520155 39.760727 25.560467   T T T
9.940182 41.180752 26.980494   T T T
11.360209 39.760727 25.560467   T T T
12.780233 41.180752 26.980494   T T T
14.200259 39.760727 25.560467   T T T
15.620285 41.180752 26.980494   T T T
17.040312 39.760727 25.560467   T T T
18.460339 41.180752 26.980494   T T T
19.880363 39.760727 25.560467   T T T
21.300390 41.180752 26.980494   T T T
22.720415 39.760727 25.560467   T T T
24.140442 41.180752 26.980494   T T T
25.560467 39.760727 25.560467   T T T
26.980494 41.180752 26.980494   T T T
28.400518 39.760727 25.560467   T T T
29.820545 41.180752 26.980494   T T T
31.240570 39.760727 25.560467   T T T
32.660595 41.180752 26.980494   T T T
34.080624 39.760727 25.560467   T T T
35.500648 41.180752 26.980494   T T T
36.920673 39.760727 25.560467   T T T
38.340698 41.180752 26.980494   T T T
39.760727 39.760727 25.560467   T T T
41.180752 41.180752 26.980494   T T T
42.600777 39.760727 25.560467   T T T
44.020802 41.180752 26.980494   T T T
45.440830 39.760727 25.560467   T T T
46.860855 41.180752 26.980494   T T T
48.280884 39.760727 25.560467   T T T
11.360209 42.600777 25.560467   T T T
12.780233 44.020802 26.980494   T T T
14.200259 42.600777 25.560467   T T T
15.620285 44.020802 26.980494   T T T
17.040312 42.600777 25.560467   T T T
18.460339 44.020802 26.980494   T T T
19.880363 42.600777 25.560467   T T T
21.300390 44.020802 26.980494   T T T
22.720415 42.600777 25.560467   T T T
24.140442 44.020802 26.980494   T T T
25.560467 42.600777 25.560467   T T T
26.980494 44.020802 26.980494   T T T
28.400518 42.600777 25.560467   T T T
29.820545 44.020802 26.980494   T T T
31.240570 42.600777 25.560467   T T T
32.660595 44.020802 26.980494   T T T
34.080624 42.600777 25.560467   T T T
35.500648 44.020802 26.980494   T T T
36.920673 42.600777 25.560467   T T T
38.340698 44.020802 26.980494   T T T
39.760727 42.600777 25.560467   T T T
41.180752 44.020802 26.980494   T T T
42.600777 42.600777 25.560467   T T T
44.020802 44.020802 26.980494   T T T
45.440830 42.600777 25.560467   T T T
14.200259 45.440830 25.560467   T T T
15.620285 46.860855 26.980494   T T T
17.040312 45.440830 25.560467   T T T
18.460339 46.860855 26.980494   T T T
19.880363 45.440830 25.560467   T T T
21.300390 46.860855 26.980494   T T T
22.720415 45.440830 25.560467   T T T
24.140442 46.860855 26.980494   T T T
25.560467 45.440830 25.560467   T T T
26.980494 46.860855 26.980494   T T T
28.400518 45.440830 25.560467   T T T
29.820545 46.860855 26.980494   T T T
31.240570 45.440830 25.560467   T T T
32.660595 46.860855 26.980494   T T T
34.080624 45.440830 25.560467   T T T
35.500648 46.860855 26.980494   T T T
36.920673 45.440830 25.560467   T T T
38.340698 46.860855 26.980494   T T T
39.760727 45.440830 25.560467   T T T
41.180752 46.860855 26.980494   T T T
42.600777 45.440830 25.560467   T T T
17.040312 48.280884 25.560467   T T T
18.460339 49.700909 26.980494   T T T
19.880363 48.280884 25.560467   T T T
21.300390 49.700909 26.980494   T T T
22.720415 48.280884 25.560467   T T T
24.140442 49.700909 26.980494   T T T
25.560467 48.280884 25.560467   T T T
26.980494 49.700909 26.980494   T T T
28.400518 48.280884 25.560467   T T T
29.820545 49.700909 26.980494   T T T
31.240570 48.280884 25.560467   T T T
32.660595 49.700909 26.980494   T T T
34.080624 48.280884 25.560467   T T T
35.500648 49.700909 26.980494   T T T
36.920673 48.280884 25.560467   T T T
38.340698 49.700909 26.980494   T T T
39.760727 48.280884 25.560467   T T T
18.460339 7.100130 29.820545   T T T
21.300390 7.100130 29.820545   T T T
24.140442 7.100130 29.820545   T T T
26.980494 7.100130 29.820545   T T T
29.820545 7.100130 29.820545   T T T
32.660595 7.100130 29.820545   T T T
35.500648 7.100130 29.820545   T T T
38.340698 7.100130 29.820545   T T T
15.620285 9.940182 29.820545   T T T
17.040312 8.520155 28.400518   T T T
18.460339 9.940182 29.820545   T T T
19.880363 8.520155 28.400518   T T T
21.300390 9.940182 29.820545   T T T
22.720415 8.520155 28.400518   T T T
24.140442 9.940182 29.820545   T T T
25.560467 8.520155 28.400518   T T T
26.980494 9.940182 29.820545   T T T
28.400518 8.520155 28.400518   T T T
29.820545 9.940182 29.820545   T T T
31.240570 8.520155 28.400518   T T T
32.660595 9.940182 29.820545   T T T
34.080624 8.520155 28.400518   T T T
35.500648 9.940182 29.820545   T T T
36.920673 8.520155 28.400518   T T T
38.340698 9.940182 29.820545   T T T
39.760727 8.520155 28.400518   T T T
41.180752 9.940182 29.820545   T T T
12.780233 12.780233 29.820545   T T T
14.200259 11.360209 28.400518   T T T
15.620285 12.780233 29.820545   T T T
17.040312 11.360209 28.400518   T T T
18.460339 12.780233 29.820545   T T T
19.880363 11.360209 28.400518   T T T
21.300390 12.780233 29.820545   T T T
22.720415 11.360209 28.400518   T T T
24.140442 12.780233 29.820545   T T T
25.560467 11.360209 28.400518   T T T
26.980494 12.780233 29.820545   T T T
28.400518 11.360209 28.400518   T T T
29.820545 12.780233 29.820545   T T T
31.240570 11.360209 28.400518   T T T
32.660595 12.780233 29.820545   T T T
34.080624 11.360209 28.400518   T T T
35.500648 12.780233 29.820545   T T T
36.920673 11.360209 28.400518   T T T
38.340698 12.780233 29.820545   T T T
39.760727 11.360209 28.400518   T T T
41.180752 12.780233 29.820545   T T T
42.600777 11.360209 28.400518   T T T
44.020802 12.780233 29.820545   T T T
9.940182 15.620285 29.820545   T T T
11.360209 14.200259 28.400518   T T T
12.780233 15.620285 29.820545   T T T
14.200259 14.200259 28.400518   T T T
15.620285 15.620285 29.820545   T T T
17.040312 14.200259 28.400518   T T T
18.460339 15.620285 29.820545   T T T
19.880363 14.200259 28.400518   T T T
21.300390 15.620285 29.820545   T T T
22.720415 14.200259 28.400518   T T T
24.140442 15.620285 29.820545   T T T
25.560467 14.200259 28.400518   T T T
26.980494 15.620285 29.820545   T T T
28.400518 14.200259 28.400518   T T T
29.820545 15.620285 29.820545   T T T
31.240570 14.200259 28.400518   T T T
32.660595 15.620285 29.820545   T T T
34.080624 14.200259 28.400518   T T T
35.500648 15.620285 29.820545   T T T
36.920673 14.200259 28.400518   T T T
38.340698 15.620285 29.820545   T T T
39.760727 14.200259 28.400518   T T T
41.180752 15.620285 29.820545   T T T
42.600777 14.200259 28.400518   T T T
44.020802 15.620285 29.820545   T T T
45.440830 14.200259 28.400518   T T T
46.860855 15.620285 29.820545   T T T
7.100130 18.460339 29.820545   T T T
8.520155 17.040312 28.400518   T T T
9.940182 18.460339 29.820545   T T T
11.360209 17.040312 28.400518   T T T
12.780233 18.460339 29.820545   T T T
14.200259 17.040312 28.400518   T T T
15.620285 18.460339 29.820545   T T T
17.040312 17.040312 28.400518   T T T
18.460339 18.460339 29.820545   T T T
19.880363 17.040312 28.400518   T T T
21.300390 18.460339 29.820545   T T T
22.720415 17.040312 28.400518   T T T
24.140442 18.460339 29.820545   T T T
25.560467 17.040312 28.400518   T T T
26.980494 18.460339 29.820545   T T T
28.400518 17.040312 28.400518   T T T
29.820545 18.460339 29.820545   T T T
31.240570 17.040312 28.400518   T T T
32.660595 18.460339 29.820545   T T T
34.080624 17.040312 28.400518   T T T
35.500648 18.460339 29.820545   T T T
36.920673 17.040312 28.400518   T T T
38.340698 18.460339 29.820545   T T T
39.760727 17.040312 28.400518   T T T
41.180752 18.460339 29.820545   T T T
42.600777 17.040312 28.400518   T T T
44.020802 18.460339 29.820545   T T T
45.440830 17.040312 28.400518   T T T
46.860855 18.460339 29.820545   T T T
48.280884 17.040312 28.400518   T T T
49.700909 18.460339 29.820545   T T T
7.100130 21.300390 29.820545   T T T
8.520155 19.880363 28.400518   T T T
9.940182 21.300390 29.820545   T T T
11.360209 19.880363 28.400518   T T T
12.780233 21.300390 29.820545   T T T
14.200259 19.880363 28.400518   T T T
15.620285 21.300390 29.820545   T T T
17.040312 19.880363 28.400518   T T T
18.460339 21.300390 29.820545   T T T
19.880363 19.880363 28.400518   T T T
21.300390 21.300390 29.820545   T T T
22.720415 19.880363 28.400518   T T T
24.140442 21.300390 29.820545   T T T
25.560467 19.880363 28.400518   T T T
26.980494 21.300390 29.820545   T T T
28.400518 19.880363 28.400518   T T T
29.820545 21.300390 29.820545   T T T
31.240570 19.880363 28.400518   T T T
32.660595 21.300390 29.820545   T T T
34.080624 19.880363 28.400518   T T T
35.500648 21.300390 29.820545   T T T
36.920673 19.880363 28.400518   T T T
38.340698 21.300390 29.820545   T T T
39.760727 19.880363 28.400518   T T T
41.180752 21.300390 29.820545   T T T
42.600777 19.880363 28.400518   T T T
44.020802 21.300390 29.820545   T T T
45.440830 19.880363 28.400518   T T T
46.860855 21.300390 29.820545   T T T
48.280884 19.880363 28.400518   T T T
49.700909 21.300390 29.820545   T T T
7.100130 24.140442 29.820545   T T T
8.520155 22.720415 28.400518   T T T
9.940182 24.140442 29.820545   T T T
11.360209 22.720415 28.400518   T T T
12.780233 24.140442 29.820545   T T T
14.200259 22.720415 28.400518   T T T
15.620285 24.140442 29.820545   T T T
17.040312 22.720415 28.400518   T T T
18.460339 24.140442 29.820545   T T T
19.880363 22.720415 28.400518   T T T
21.300390 24.140442 29.820545   T T T
22.720415 22.720415 28.400518   T T T
24.140442 24.140442 29.820545   T T T
25.560467 22.720415 28.400518   T T T
26.980494 24.140442 29.820545   T T T
28.400518 22.720415 28.400518   T T T
29.820545 24.140442 29.820545   T T T
31.240570 22.720415 28.400518   T T T
32.660595 24.140442 29.820545   T T T
34.080624 22.720415 28.400518   T T T
35.500648 24.140442 29.820545   T T T
36.920673 22.720415 28.400518   T T T
38.340698 24.140442 29.820545   T T T
39.760727 22.720415 28.400518   T T T
41.180752 24.140442 29.820545   T T T
42.600777 22.720415 28.400518   T T T
44.020802 24.140442 29.820545   T T T
45.440830 22.720415 28.400518   T T T
46.860855 24.140442 29.820545   T T T
48.280884 22.720415 28.400518   T T T
49.700909 24.140442 29.820545   T T T
7.100130 26.980494 29.820545   T T T
8.520155 25.560467 28.400518   T T T
9.940182 26.980494 29.820545   T T T
11.360209 25.560467 28.400518   T T T
12.780233 26.980494 29.820545   T T T
14.200259 25.560467 28.400518   T T T
15.620285 26.980494 29.820545   T T T
17.040312 25.560467 28.400518   T T T
18.460339 26.980494 29.820545   T T T
19.880363 25.560467 28.400518   T T T
21.300390 26.980494 29.820545   T T T
22.720415 25.560467 28.400518   T T T
24.140442 26.980494 29.820545   T T T
25.560467 25.560467 28.400518   T T T
26.980494 26.980494 29.820545   T T T
28.400518 25.560467 28.400518   T T T
29.820545 26.980494 29.820545   T T T
31.240570 25.560467 28.400518   T T T
32.660595 26.980494 29.820545   T T T
34.080624 25.560467 28.400518   T T T
35.500648 26.980494 29.820545   T T T
36.920673 25.560467 28.400518   T T T
38.340698 26.980494 29.820545   T T T
39.760727 25.560467 28.400518   T T T
41.180752 26.980494 29.820545   T T T
42.600777 25.560467 28.400518   T T T
44.020802 26.980494 29.820545   T T T
45.440830 25.560467 28.400518   T T T
46.860855 26.980494 29.820545   T T T
48.280884 25.560467 28.400518   T T T
49.700909 26.980494 29.820545   T T T
7.100130 29.820545 29.820545   T T T
8.520155 28.400518 28.400518   T T T
9.940182 29.820545 29.820545   T T T
11.360209 28.400518 28.400518   T T T
12.780233 29.820545 29.820545   T T T
14.200259 28.400518 28.400518   T T T
15.620285 29.820545 29.820545   T T T
17.040312 28.400518 28.400518   T T T
18.460339 29.820545 29.820545   T T T
19.880363 28.400518 28.400518   T T T
21.300390 29.820545 29.820545   T T T
22.720415 28.400518 28.400518   T T T
24.140442 29.820545 29.820545   T T T
25.560467 28.400518 28.400518   T T T
26.980494 29.820545 29.820545   T T T
28.400518 28.400518 28.400518   T T T
29.820545 29.820545 29.820545   T T T
31.240570 28.400518 28.400518   T T T
32.660595 29.820545 29.820545   T T T
34.080624 28.400518 28.400518   T T T
35.500648 29.820545 29.820545   T T T
36.920673 28.400518 28.400518   T T T
38.340698 29.820545 29.820545   T T T
39.760727 28.400518 28.400518   T T T
41.180752 29.820545 29.820545   T T T
42.600777 28.400518 28.400518   T T T
44.020802 29.820545 29.820545   T T T
45.440830 28.400518 28.400518   T T T
46.860855 29.820545 29.820545   T T T
48.280884 28.400518 28.400518   T T T
49.700909 29.820545 29.820545   T T T
7.100130 32.660595 29.820545   T T T
8.520155 31.240570 28.400518   T T T
9.940182 32.660595 29.820545   T T T
11.360209 31.240570 28.400518   T T T
12.780233 32.660595 29.820545   T T T
14.200259 31.240570 28.400518   T T T
15.620285 32.660595 29.820545   T T T
17.040312 31.240570 28.400518   T T T
18.460339 32.660595 29.820545   T T T
19.880363 31.240570 28.400518   T T T
21.300390 32.660595 29.820545   T T T
22.720415 31.240570 28.400518   T T T
24.140442 32.660595 29.820545   T T T
25.560467 31.240570 28.400518   T T T
26.980494 32.660595 29.820545   T T T
28.400518 31.240570 28.400518   T T T
29.820545 32.660595 29.820545   T T T
31.240570 31.240570 28.400518   T T T
32.660595 32.660595 29.820545   T T T
34.080624 31.240570 28.400518   T T T
35.500648 32.660595 29.820545   T T T
36.920673 31.240570 28.400518   T T T
38.340698 32.660595 29.820545   T T T
39.760727 31.240570 28.400518   T T T
41.180752 32.660595 29.820545   T T T
42.600777 31.240570 28.400518   T T T
44.020802 32.660595 29.820545   T T T
45.440830 31.240570 28.400518   T T T
46.860855 32.660595 29.820545   T T T
48.280884 31.240570 28.400518   T T T
49.700909 32.660595 29.820545   T T T
7.100130 35.500648 29.820545   T T T
8.520155 34.080624 28.400518   T T T
9.940182 35.500648 29.820545   T T T
11.360209 34.080624 28.400518   T T T
12.780233 35.500648 29.820545   T T T
14.200259 34.080624 28.400518   T T T
15.620285 35.500648 29.820545   T T T
17.040312 34.080624 28.400518   T T T
18.460339 35.500648 29.820545   T T T
19.880363 34.080624 28.400518   T T T
21.300390 35.500648 29.820545   T T T
22.720415 34.080624 28.400518   T T T
24.140442 35.500648 29.820545   T T T
25.560467 34.080624 28.400518   T T T
26.980494 35.500648 29.820545   T T T
28.400518 34.080624 28.400518   T T T
29.820545 35.500648 29.820545   T T T
31.240570 34.080624 28.400518   T T T
32.660595 35.500648 29.820545   T T T
34.080624 34.080624 28.400518   T T T
35.500648 35.500648 29.820545   T T T
36.920673 34.080624 28.400518   T T T
38.340698 35.500648 29.820545   T T T
39.760727 34.080624 28.400518   T T T
41.180752 35.500648 29.820545   T T T
42.600777 34.080624 28.400518   T T T
44.020802 35.500648 29.820545   T T T
45.440830 34.080624 28.400518   T T T
46.860855 35.500648 29.820545   T T T
48.280884 34.080624 28.400518   T T T
49.700909 35.500648 29.820545   T T T
7.100130 38.340698 29.820545   T T T
8.520155 36.920673 28.400518   T T T
9.940182 38.340698 29.820545   T T T
11.360209 36.920673 28.400518   T T T
12.780233 38.340698 29.820545   T T T
14.200259 36.920673 28.400518   T T T
15.620285 38.340698 29.820545   T T T
17.040312 36.920673 28.400518   T T T
18.460339 38.340698 29.820545   T T T
19.880363 36.920673 28.400518   T T T
21.300390 38.340698 29.820545   T T T
22.720415 36.920673 28.400518   T T T
24.140442 38.340698 29.820545   T T T
25.560467 36.920673 28.400518   T T T
26.980494 38.340698 29.820545   T T T
28.400518 36.920673 28.400518   T T T
29.820545 38.340698 29.820545   T T T
31.240570 36.920673 28.400518   T T T
32.660595 38.340698 29.820545   T T T
34.080624 36.920673 28.400518   T T T
35.500648 38.340698 29.820545   T T T
36.920673 36.920673 28.400518   T T T
38.340698 38.340698 29.820545   T T T
39.760727 36.920673 28.400518   T T T
41.180752 38.340698 29.820545   T T T
42.600777 36.920673 28.400518   T T T
44.020802 38.340698 29.820545   T T T
45.440830 36.920673 28.400518   T T T
46.860855 38.340698 29.820545   T T T
48.280884 36.920673 28.400518   T T T
49.700909 38.340698 29.820545   T T T
8.520155 39.760727 28.400518   T T T
9.940182 41.180752 29.820545   T T T
11.360209 39.760727 28.400518   T T T
12.780233 41.180752 29.820545   T T T
14.200259 39.760727 28.400518   T T T
15.620285 41.180752 29.820545   T T T
17.040312 39.760727 28.400518   T T T
18.460339 41.180752 29.820545   T T T
19.880363 39.760727 28.400518   T T T
21.300390 41.180752 29.820545   T T T
22.720415 39.760727 28.400518   T T T
24.140442 41.180752 29.820545   T T T
25.560467 39.760727 28.400518   T T T
26.980494 41.180752 29.820545   T T T
28.400518 39.760727 28.400518   T T T
29.820545 41.180752 29.820545   T T T
31.240570 39.760727 28.400518   T T T
32.660595 41.180752 29.820545   T T T
34.080624 39.760727 28.400518   T T T
35.500648 41.180752 29.820545   T T T
36.920673 39.760727 28.400518   T T T
38.340698 41.180752 29.820545   T T T
39.760727 39.760727 28.400518   T T T
41.180752 41.180752 29.820545   T T T
42.600777 39.760727 28.400518   T T T
44.020802 41.180752 29.820545   T T T
45.440830 39.760727 28.400518   T T T
46.860855 41.180752 29.820545   T T T
48.280884 39.760727 28.400518   T T T
11.360209 42.600777 28.400518   T T T
12.780233 44.020802 29.820545   T T T
14.200259 42.600777 28.400518   T T T
15.620285 44.020802 29.820545   T T T
17.040312 42.600777 28.400518   T T T
18.460339 44.020802 29.820545   T T T
19.880363 42.600777 28.400518   T T T
21.300390 44.020802 29.820545   T T T
22.720415 42.600777 28.400518   T T T
24.140442 44.020802 29.820545   T T T
25.560467 42.600777 28.400518   T T T
26.980494 44.020802 29.820545   T T T
28.400518 42.600777 28.400518   T T T
29.820545 44.020802 29.820545   T T T
31.240570 42.600777 28.400518   T T T
32.660595 44.020802 29.820545   T T T
34.080624 42.600777 28.400518   T T T
35.500648 44.020802 29.820545   T T T
36.920673 42.600777 28.400518   T T T
38.340698 44.020802 29.820545   T T T
39.760727 42.600777 28.400518   T T T
41.180752 44.020802 29.820545   T T T
42.600777 42.600777 28.400518   T T T
44.020802 44.020802 29.820545   T T T
45.440830 42.600777 28.400518   T T T
14.200259 45.440830 28.400518   T T T
15.620285 46.860855 29.820545   T T T
17.040312 45.440830 28.400518   T T T
18.460339 46.860855 29.820545   T T T
19.880363 45.440830 28.400518   T T T
21.300390 46.860855 29.820545   T T T
22.720415 45.440830 28.400518   T T T
24.140442 46.860855 29.820545   T T T
25.560467 45.440830 28.400518   T T T
26.980494 46.860855 29.820545   T T T
28.400518 45.440830 28.400518   T T T
29.820545 46.860855 29.820545   T T T
31.240570 45.440830 28.400518   T T T
32.660595 46.860855 29.820545   T T T
34.080624 45.440830 28.400518   T T T
35.500648 46.860855 29.820545   T T T
36.920673 45.440830 28.400518   T T T
38.340698 46.860855 29.820545   T T T
39.760727 45.440830 28.400518   T T T
41.180752 46.860855 29.820545   T T T
42.600777 45.440830 28.400518   T T T
17.040312 48.280884 28.400518   T T T
18.460339 49.700909 29.820545   T T T
19.880363 48.280884 28.400518   T T T
21.300390 49.700909 29.820545   T T T
22.720415 48.280884 28.400518   T T T
24.140442 49.700909 29.820545   T T T
25.560467 48.280884 28.400518   T T T
26.980494 49.700909 29.820545   T T T
28.400518 48.280884 28.400518   T T T
29.820545 49.700909 29.820545   T T T
31.240570 48.280884 28.400518   T T T
32.660595 49.700909 29.820545   T T T
34.080624 48.280884 28.400518   T T T
35.500648 49.700909 29.820545   T T T
36.920673 48.280884 28.400518   T T T
38.340698 49.700909 29.820545   T T T
39.760727 48.280884 28.400518   T T T
18.460339 7.100130 32.660595   T T T
21.300390 7.100130 32.660595   T T T
24.140442 7.100130 32.660595   T T T
26.980494 7.100130 32.660595   T T T
29.820545 7.100130 32.660595   T T T
32.660595 7.100130 32.660595   T T T
35.500648 7.100130 32.660595   T T T
38.340698 7.100130 32.660595   T T T
15.620285 9.940182 32.660595   T T T
17.040312 8.520155 31.240570   T T T
18.460339 9.940182 32.660595   T T T
19.880363 8.520155 31.240570   T T T
21.300390 9.940182 32.660595   T T T
22.720415 8.520155 31.240570   T T T
24.140442 9.940182 32.660595   T T T
25.560467 8.520155 31.240570   T T T
26.980494 9.940182 32.660595   T T T
28.400518 8.520155 31.240570   T T T
29.820545 9.940182 32.660595   T T T
31.240570 8.520155 31.240570   T T T
32.660595 9.940182 32.660595   T T T
34.080624 8.520155 31.240570   T T T
35.500648 9.940182 32.660595   T T T
36.920673 8.520155 31.240570   T T T
38.340698 9.940182 32.660595   T T T
39.760727 8.520155 31.240570   T T T
41.180752 9.940182 32.660595   T T T
12.780233 12.780233 32.660595   T T T
14.200259 11.360209 31.240570   T T T
15.620285 12.780233 32.660595   T T T
17.040312 11.360209 31.240570   T T T
18.460339 12.780233 32.660595   T T T
19.880363 11.360209 31.240570   T T T
21.300390 12.780233 32.660595   T T T
22.720415 11.360209 31.240570   T T T
24.140442 12.780233 32.660595   T T T
25.560467 11.360209 31.240570   T T T
26.980494 12.780233 32.660595   T T T
28.400518 11.360209 31.240570   T T T
29.820545 12.780233 32.660595   T T T
31.240570 11.360209 31.240570   T T T
32.660595 12.780233 32.660595   T T T
34.080624 11.360209 31.240570   T T T
35.500648 12.780233 32.660595   T T T
36.920673 11.360209 31.240570   T T T
38.340698 12.780233 32.660595   T T T
39.760727 11.360209 31.240570   T T T
41.180752 12.780233 32.660595   T T T
42.600777 11.360209 31.240570   T T T
44.020802 12.780233 32.660595   T T T
9.940182 15.620285 32.660595   T T T
11.360209 14.200259 31.240570   T T T
12.780233 15.620285 32.660595   T T T
14.200259 14.200259 31.240570   T T T
15.620285 15.620285 32.660595   T T T
17.040312 14.200259 31.240570   T T T
18.460339 15.620285 32.660595   T T T
19.880363 14.200259 31.240570   T T T
21.300390 15.620285 32.660595   T T T
22.720415 14.200259 31.240570   T T T
24.140442 15.620285 32.660595   T T T
25.560467 14.200259 31.240570   T T T
26.980494 15.620285 32.660595   T T T
28.400518 14.200259 31.240570   T T T
29.820545 15.620285 32.660595   T T T
31.240570 14.200259 31.240570   T T T
32.660595 15.620285 32.660595   T T T
34.080624 14.200259 31.240570   T T T
35.500648 15.620285 32.660595   T T T
36.920673 14.200259 31.240570   T T T
38.340698 15.620285 32.660595   T T T
39.760727 14.200259 31.240570   T T T
41.180752 15.620285 32.660595   T T T
42.600777 14.200259 31.240570   T T T
44.020802 15.620285 32.660595   T T T
45.440830 14.200259 31.240570   T T T
46.860855 15.620285 32.660595   T T T
7.100130 18.460339 32.660595   T T T
8.520155 17.040312 31.240570   T T T
9.940182 18.460339 32.660595   T T T
11.360209 17.040312 31.240570   T T T
12.780233 18.460339 32.660595   T T T
14.200259 17.040312 31.240570   T T T
15.620285 18.460339 32.660595   T T T
17.040312 17.040312 31.240570   T T T
18.460339 18.460339 32.660595   T T T
19.880363 17.040312 31.240570   T T T
21.300390 18.460339 32.660595   T T T
22.720415 17.040312 31.240570   T T T
24.140442 18.460339 32.660595   T T T
25.560467 17.040312 31.240570   T T T
26.980494 18.460339 32.660595   T T T
28.400518 17.040312 31.240570   T T T
29.820545 18.460339 32.660595   T T T
31.240570 17.040312 31.240570   T T T
32.660595 18.460339 32.660595   T T T
34.080624 17.040312 31.240570   T T T
35.500648 18.460339 32.660595   T T T
36.920673 17.040312 31.240570   T T T
38.340698 18.460339 32.660595   T T T
39.760727 17.040312 31.240570   T T T
41.180752 18.460339 32.660595   T T T
42.600777 17.040312 31.240570   T T T
44.020802 18.460339 32.660595   T T T
45.440830 17.040312 31.240570   T T T
46.860855 18.460339 32.660595   T T T
48.280884 17.040312 31.240570   T T T
49.700909 18.460339 32.660595   T T T
7.100130 21.300390 32.660595   T T T
8.520155 19.880363 31.240570   T T T
9.940182 21.300390 32.660595   T T T
11.360209 19.880363 31.240570   T T T
12.780233 21.300390 32.660595   T T T
14.200259 19.880363 31.240570   T T T
15.620285 21.300390 32.660595   T T T
17.040312 19.880363 31.240570   T T T
18.460339 21.300390 32.660595   T T T
19.880363 19.880363 31.240570   T T T
21.300390 21.300390 32.660595   T T T
22.720415 19.880363 31.240570   T T T
24.140442 21.300390 32.660595   T T T
25.560467 19.880363 31.240570   T T T
26.980494 21.300390 32.660595   T T T
28.400518 19.880363 31.240570   T T T
29.820545 21.300390 32.660595   T T T
31.240570 19.880363 31.240570   T T T
32.660595 21.300390 32.660595   T T T
34.080624 19.880363 31.240570   T T T
35.500648 21.300390 32.660595   T T T
36.920673 19.880363 31.240570   T T T
38.340698 21.300390 32.660595   T T T
39.760727 19.880363 31.240570   T T T
41.180752 21.300390 32.660595   T T T
42.600777 19.880363 31.240570   T T T
44.020802 21.300390 32.660595   T T T
45.440830 19.880363 31.240570   T T T
46.860855 21.300390 32.660595   T T T
48.280884 19.880363 31.240570   T T T
49.700909 21.300390 32.660595   T T T
7.100130 24.140442 32.660595   T T T
8.520155 22.720415 31.240570   T T T
9.940182 24.140442 32.660595   T T T
11.360209 22.720415 31.240570   T T T
12.780233 24.140442 32.660595   T T T
14.200259 22.720415 31.240570   T T T
15.620285 24.140442 32.660595   T T T
17.040312 22.720415 31.240570   T T T
18.460339 24.140442 32.660595   T T T
19.880363 22.720415 31.240570   T T T
21.300390 24.140442 32.660595   T T T
22.720415 22.720415 31.240570   T T T
24.140442 24.140442 32.660595   T T T
25.560467 22.720415 31.240570   T T T
26.980494 24.140442 32.660595   T T T
28.400518 22.720415 31.240570   T T T
29.820545 24.140442 32.660595   T T T
31.240570 22.720415 31.240570   T T T
32.660595 24.140442 32.660595   T T T
34.080624 22.720415 31.240570   T T T
35.500648 24.140442 32.660595   T T T
36.920673 22.720415 31.240570   T T T
38.340698 24.140442 32.660595   T T T
39.760727 22.720415 31.240570   T T T
41.180752 24.140442 32.660595   T T T
42.600777 22.720415 31.240570   T T T
44.020802 24.140442 32.660595   T T T
45.440830 22.720415 31.240570   T T T
46.860855 24.140442 32.660595   T T T
48.280884 22.720415 31.240570   T T T
49.700909 24.140442 32.660595   T T T
7.100130 26.980494 32.660595   T T T
8.520155 25.560467 31.240570   T T T
9.940182 26.980494 32.660595   T T T
11.360209 25.560467 31.240570   T T T
12.780233 26.980494 32.660595   T T T
14.200259 25.560467 31.240570   T T T
15.620285 26.980494 32.660595   T T T
17.040312 25.560467 31.240570   T T T
18.460339 26.980494 32.660595   T T T
19.880363 25.560467 31.240570   T T T
21.300390 26.980494 32.660595   T T T
22.720415 25.560467 31.240570   T T T
24.140442 26.980494 32.660595   T T T
25.560467 25.560467 31.240570   T T T
26.980494 26.980494 32.660595   T T T
28.400518 25.560467 31.240570   T T T
29.820545 26.980494 32.660595   T T T
31.240570 25.560467 31.240570   T T T
32.660595 26.980494 32.660595   T T T
34.080624 25.560467 31.240570   T T T
35.500648 26.980494 32.660595   T T T
36.920673 25.560467 31.240570   T T T
38.340698 26.980494 32.660595   T T T
39.760727 25.560467 31.240570   T T T
41.180752 26.980494 32.660595   T T T
42.600777 25.560467 31.240570   T T T
44.020802 26.980494 32.660595   T T T
45.440830 25.560467 31.240570   T T T
46.860855 26.980494 32.660595   T T T
48.280884 25.560467 31.240570   T T T
49.700909 26.980494 32.660595   T T T
7.100130 29.820545 32.660595   T T T
8.520155 28.400518 31.240570   T T T
9.940182 29.820545 32.660595   T T T
11.360209 28.400518 31.240570   T T T
12.780233 29.820545 32.660595   T T T
14.200259 28.400518 31.240570   T T T
15.620285 29.820545 32.660595   T T T
17.040312 28.400518 31.240570   T T T
18.460339 29.820545 32.660595   T T T
19.880363 28.400518 31.240570   T T T
21.300390 29.820545 32.660595   T T T
22.720415 28.400518 31.240570   T T T
24.140442 29.820545 32.660595   T T T
25.560467 28.400518 31.240570   T T T
26.980494 29.820545 32.660595   T T T
28.400518 28.400518 31.240570   T T T
29.820545 29.820545 32.660595   T T T
31.240570 28.400518 31.240570   T T T
32.660595 29.820545 32.660595   T T T
34.080624 28.400518 31.240570   T T T
35.500648 29.820545 32.660595   T T T
36.920673 28.400518 31.240570   T T T
38.340698 29.820545 32.660595   T T T
39.760727 28.400518 31.240570   T T T
41.180752 29.820545 32.660595   T T T
42.600777 28.400518 31.240570   T T T
44.020802 29.820545 32.660595   T T T
45.440830 28.400518 31.240570   T T T
46.860855 29.820545 32.660595   T T T
48.280884 28.400518 31.240570   T T T
49.700909 29.820545 32.660595   T T T
7.100130 32.660595 32.660595   T T T
8.520155 31.240570 31.240570   T T T
9.940182 32.660595 32.660595   T T T
11.360209 31.240570 31.240570   T T T
12.780233 32.660595 32.660595   T T T
14.200259 31.240570 31.240570   T T T
15.620285 32.660595 32.660595   T T T
17.040312 31.240570 31.240570   T T T
18.460339 32.660595 32.660595   T T T
19.880363 31.240570 31.240570   T T T
21.300390 32.660595 32.660595   T T T
22.720415 31.240570 31.240570   T T T
24.140442 32.660595 32.660595   T T T
25.560467 31.240570 31.240570   T T T
26.980494 32.660595 32.660595   T T T
28.400518 31.240570 31.240570   T T T
29.820545 32.660595 32.660595   T T T
31.240570 31.240570 31.240570   T T T
32.660595 32.660595 32.660595   T T T
34.080624 31.240570 31.240570   T T T
35.500648 32.660595 32.660595   T T T
36.920673 31.240570 31.240570   T T T
38.340698 32.660595 32.660595   T T T
39.760727 31.240570 31.240570   T T T
41.180752 32.660595 32.660595   T T T
42.600777 31.240570 31.240570   T T T
44.020802 32.660595 32.660595   T T T
45.440830 31.240570 31.240570   T T T
46.860855 32.660595 32.660595   T T T
48.280884 31.240570 31.240570   T T T
49.700909 32.660595 32.660595   T T T
7.100130 35.500648 32.660595   T T T
8.520155 34.080624 31.240570   T T T
9.940182 35.500648 32.660595   T T T
11.360209 34.080624 31.240570   T T T
12.780233 35.500648 32.660595   T T T
14.200259 34.080624 31.240570   T T T
15.620285 35.500648 32.660595   T T T
17.040312 34.080624 31.240570   T T T
18.460339 35.500648 32.660595   T T T
19.880363 34.080624 31.240570   T T T
21.300390 35.500648 32.660595   T T T
22.720415 34.080624 31.240570   T T T
24.140442 35.500648 32.660595   T T T
25.560467 34.080624 31.240570   T T T
26.980494 35.500648 32.660595   T T T
28.400518 34.080624 31.240570   T T T
29.820545 35.500648 32.660595   T T T
31.240570 34.080624 31.240570   T T T
32.660595 35.500648 32.660595   T T T
34.080624 34.080624 31.240570   T T T
35.500648 35.500648 32.660595   T T T
36.920673 34.080624 31.240570   T T T
38.340698 35.500648 32.660595   T T T
39.760727 34.080624 31.240570   T T T
41.180752 35.500648 32.660595   T T T
42.600777 34.080624 31.240570   T T T
44.020802 35.500648 32.660595   T T T
45.440830 34.080624 31.240570   T T T
46.860855 35.500648 32.660595   T T T
48.280884 34.080624 31.240570   T T T
49.700909 35.500648 32.660595   T T T
7.100130 38.340698 32.660595   T T T
8.520155 36.920673 31.240570   T T T
9.940182 38.340698 32.660595   T T T
11.360209 36.920673 31.240570   T T T
12.780233 38.340698 32.660595   T T T
14.200259 36.920673 31.240570   T T T
15.620285 38.340698 32.660595   T T T
17.040312 36.920673 31.240570   T T T
18.460339 38.340698 32.660595   T T T
19.880363 36.920673 31.240570   T T T
21.300390 38.340698 32.660595   T T T
22.720415 36.920673 31.240570   T T T
24.140442 38.340698 32.660595   T T T
25.560467 36.920673 31.240570   T T T
26.980494 38.340698 32.660595   T T T
28.400518 36.920673 31.240570   T T T
29.820545 38.340698 32.660595   T T T
31.240570 36.920673 31.240570   T T T
32.660595 38.340698 32.660595   T T T
34.080624 36.920673 31.240570   T T T
35.500648 38.340698 32.660595   T T T
36.920673 36.920673 31.240570   T T T
38.340698 38.340698 32.660595   T T T
39.760727 36.920673 31.240570   T T T
41.180752 38.340698 32.660595   T T T
42.600777 36.920673 31.240570   T T T
44.020802 38.340698 32.660595   T T T
45.440830 36.920673 31.240570   T T T
46.860855 38.340698 32.660595   T T T
48.280884 36.920673 31.240570   T T T
49.700909 38.340698 32.660595   T T T
8.520155 39.760727 31.240570   T T T
9.940182 41.180752 32.660595   T T T
11.360209 39.760727 31.240570   T T T
12.780233 41.180752 32.660595   T T T
14.200259 39.760727 31.240570   T T T
15.620285 41.180752 32.660595   T T T
17.040312 39.760727 31.240570   T T T
18.460339 41.180752 32.660595   T T T
19.880363 39.760727 31.240570   T T T
21.300390 41.180752 32.660595   T T T
22.720415 39.760727 31.240570   T T T
24.140442 41.180752 32.660595   T T T
25.560467 39.760727 31.240570   T T T
26.980494 41.180752 32.660595   T T T
28.400518 39.760727 31.240570   T T T
29.820545 41.180752 32.660595   T T T
31.240570 39.760727 31.240570   T T T
32.660595 41.180752 32.660595   T T T
34.080624 39.760727 31.240570   T T T
35.500648 41.180752 32.660595   T T T
36.920673 39.760727 31.240570   T T T
38.340698 41.180752 32.660595   T T T
39.760727 39.760727 31.240570   T T T
41.180752 41.180752 32.660595   T T T
42.600777 39.760727 31.240570   T T T
44.020802 41.180752 32.660595   T T T
45.440830 39.760727 31.240570   T T T
46.860855 41.180752 32.660595   T T T
48.280884 39.760727 31.240570   T T T
11.360209 42.600777 31.240570   T T T
12.780233 44.020802 32.660595   T T T
14.200259 42.600777 31.240570   T T T
15.620285 44.020802 32.660595   T T T
17.040312 42.600777 31.240570   T T T
18.460339 44.020802 32.660595   T T T
19.880363 42.600777 31.240570   T T T
21.300390 44.020802 32.660595   T T T
22.720415 42.600777 31.240570   T T T
24.140442 44.020802 32.660595   T T T
25.560467 42.600777 31.240570   T T T
26.980494 44.020802 32.660595   T T T
28.400518 42.600777 31.240570   T T T
29.820545 44.020802 32.660595   T T T
31.240570 42.600777 31.240570   T T T
32.660595 44.020802 32.660595   T T T
34.080624 42.600777 31.240570   T T T
35.500648 44.020802 32.660595   T T T
36.920673 42.600777 31.240570   T T T
38.340698 44.020802 32.660595   T T T
39.760727 42.600777 31.240570   T T T
41.180752 44.020802 32.660595   T T T
42.600777 42.600777 31.240570   T T T
44.020802 44.020802 32.660595   T T T
45.440830 42.600777 31.240570   T T T
14.200259 45.440830 31.240570   T T T
15.620285 46.860855 32.660595   T T T
17.040312 45.440830 31.240570   T T T
18.460339 46.860855 32.660595   T T T
19.880363 45.440830 31.240570   T T T
21.300390 46.860855 32.660595   T T T
22.720415 45.440830 31.240570   T T T
24.140442 46.860855 32.660595   T T T
25.560467 45.440830 31.240570   T T T
26.980494 46.860855 32.660595   T T T
28.400518 45.440830 31.240570   T T T
29.820545 46.860855 32.660595   T T T
31.240570 45.440830 31.240570   T T T
32.660595 46.860855 32.660595   T T T
34.080624 45.440830 31.240570   T T T
35.500648 46.860855 32.660595   T T T
36.920673 45.440830 31.240570   T T T
38.340698 46.860855 32.660595   T T T
39.760727 45.440830 31.240570   T T T
41.180752 46.860855 32.660595   T T T
42.600777 45.440830 31.240570   T T T
17.040312 48.280884 31.240570   T T T
18.460339 49.700909 32.660595   T T T
19.880363 48.280884 31.240570   T T T
21.300390 49.700909 32.660595   T T T
22.720415 48.280884 31.240570   T T T
24.140442 49.700909 32.660595   T T T
25.560467 48.280884 31.240570   T T T
26.980494 49.700909 32.660595   T T T
28.400518 48.280884 31.240570   T T T
29.820545 49.700909 32.660595   T T T
31.240570 48.280884 31.240570   T T T
32.660595 49.700909 32.660595   T T T
34.080624 48.280884 31.240570   T T T
35.500648 49.700909 32.660595   T T T
36.920673 48.280884 31.240570   T T T
38.340698 49.700909 32.660595   T T T
39.760727 48.280884 31.240570   T T T
18.460339 7.100130 35.500648   T T T
21.300390 7.100130 35.500648   T T T
24.140442 7.100130 35.500648   T T T
26.980494 7.100130 35.500648   T T T
29.820545 7.100130 35.500648   T T T
32.660595 7.100130 35.500648   T T T
35.500648 7.100130 35.500648   T T T
38.340698 7.100130 35.500648   T T T
15.620285 9.940182 35.500648   T T T
17.040312 8.520155 34.080624   T T T
18.460339 9.940182 35.500648   T T T
19.880363 8.520155 34.080624   T T T
21.300390 9.940182 35.500648   T T T
22.720415 8.520155 34.080624   T T T
24.140442 9.940182 35.500648   T T T
25.560467 8.520155 34.080624   T T T
26.980494 9.940182 35.500648   T T T
28.400518 8.520155 34.080624   T T T
29.820545 9.940182 35.500648   T T T
31.240570 8.520155 34.080624   T T T
32.660595 9.940182 35.500648   T T T
34.080624 8.520155 34.080624   T T T
35.500648 9.940182 35.500648   T T T
36.920673 8.520155 34.080624   T T T
38.340698 9.940182 35.500648   T T T
39.760727 8.520155 34.080624   T T T
41.180752 9.940182 35.500648   T T T
12.780233 12.780233 35.500648   T T T
14.200259 11.360209 34.080624   T T T
15.620285 12.780233 35.500648   T T T
17.040312 11.360209 34.080624   T T T
18.460339 12.780233 35.500648   T T T
19.880363 11.360209 34.080624   T T T
21.300390 12.780233 35.500648   T T T
22.720415 11.360209 34.080624   T T T
24.140442 12.780233 35.500648   T T T
25.560467 11.360209 34.080624   T T T
26.980494 12.780233 35.500648   T T T
28.400518 11.360209 34.080624   T T T
29.820545 12.780233 35.500648   T T T
31.240570 11.360209 34.080624   T T T
32.660595 12.780233 35.500648   T T T
34.080624 11.360209 34.080624   T T T
35.500648 12.780233 35.500648   T T T
36.920673 11.360209 34.080624   T T T
38.340698 12.780233 35.500648   T T T
39.760727 11.360209 34.080624   T T T
41.180752 12.780233 35.500648   T T T
42.600777 11.360209 34.080624   T T T
44.020802 12.780233 35.500648   T T T
9.940182 15.620285 35.500648   T T T
11.360209 14.200259 34.080624   T T T
12.780233 15.620285 35.500648   T T T
14.200259 14.200259 34.080624   T T T
15.620285 15.620285 35.500648   T T T
17.040312 14.200259 34.080624   T T T
18.460339 15.620285 35.500648   T T T
19.880363 14.200259 34.080624   T T T
21.300390 15.620285 35.500648   T T T
22.720415 14.200259 34.080624   T T T
24.140442 15.620285 35.500648   T T T
25.560467 14.200259 34.080624   T T T
26.980494 15.620285 35.500648   T T T
28.400518 14.200259 34.080624   T T T
29.820545 15.620285 35.500648   T T T
31.240570 14.200259 34.080624   T T T
32.660595 15.620285 35.500648   T T T
34.080624 14.200259 34.080624   T T T
35.500648 15.620285 35.500648   T T T
36.920673 14.200259 34.080624   T T T
38.340698 15.620285 35.500648   T T T
39.760727 14.200259 34.080624   T T T
41.180752 15.620285 35.500648   T T T
42.600777 14.200259 34.080624   T T T
44.020802 15.620285 35.500648   T T T
45.440830 14.200259 34.080624   T T T
46.860855 15.620285 35.500648   T T T
7.100130 18.460339 35.500648   T T T
8.520155 17.040312 34.080624   T T T
9.940182 18.460339 35.500648   T T T
11.360209 17.040312 34.080624   T T T
12.780233 18.460339 35.500648   T T T
14.200259 17.040312 34.080624   T T T
15.620285 18.460339 35.500648   T T T
17.040312 17.040312 34.080624   T T T
18.460339 18.460339 35.500648   T T T
19.880363 17.040312 34.080624   T T T
21.300390 18.460339 35.500648   T T T
22.720415 17.040312 34.080624   T T T
24.140442 18.460339 35.500648   T T T
25.560467 17.040312 34.080624   T T T
26.980494 18.460339 35.500648   T T T
28.400518 17.040312 34.080624   T T T
29.820545 18.460339 35.500648   T T T
31.240570 17.040312 34.080624   T T T
32.660595 18.460339 35.500648   T T T
34.080624 17.040312 34.080624   T T T
35.500648 18.460339 35.500648   T T T
36.920673 17.040312 34.080624   T T T
38.340698 18.460339 35.500648   T T T
39.760727 17.040312 34.080624   T T T
41.180752 18.460339 35.500648   T T T
42.600777 17.040312 34.080624   T T T
44.020802 18.460339 35.500648   T T T
45.440830 17.040312 34.080624   T T T
46.860855 18.460339 35.500648   T T T
48.280884 17.040312 34.080624   T T T
49.700909 18.460339 35.500648   T T T
7.100130 21.300390 35.500648   T T T
8.520155 19.880363 34.080624   T T T
9.940182 21.300390 35.500648   T T T
11.360209 19.880363 34.080624   T T T
12.780233 21.300390 35.500648   T T T
14.200259 19.880363 34.080624   T T T
15.620285 21.300390 35.500648   T T T
17.040312 19.880363 34.080624   T T T
18.460339 21.300390 35.500648   T T T
19.880363 19.880363 34.080624   T T T
21.300390 21.300390 35.500648   T T T
22.720415 19.880363 34.080624   T T T
24.140442 21.300390 35.500648   T T T
25.560467 19.880363 34.080624   T T T
26.980494 21.300390 35.500648   T T T
28.400518 19.880363 34.080624   T T T
29.820545 21.300390 35.500648   T T T
31.240570 19.880363 34.080624   T T T
32.660595 21.300390 35.500648   T T T
34.080624 19.880363 34.080624   T T T
35.500648 21.300390 35.500648   T T T
36.920673 19.880363 34.080624   T T T
38.340698 21.300390 35.500648   T T T
39.760727 19.880363 34.080624   T T T
41.180752 21.300390 35.500648   T T T
42.600777 19.880363 34.080624   T T T
44.020802 21.300390 35.500648   T T T
45.440830 19.880363 34.080624   T T T
46.860855 21.300390 35.500648   T T T
48.280884 19.880363 34.080624   T T T
49.700909 21.300390 35.500648   T T T
7.100130 24.140442 35.500648   T T T
8.520155 22.720415 34.080624   T T T
9.940182 24.140442 35.500648   T T T
11.360209 22.720415 34.080624   T T T
12.780233 24.140442 35.500648   T T T
14.200259 22.720415 34.080624   T T T
15.620285 24.140442 35.500648   T T T
17.040312 22.720415 34.080624   T T T
18.460339 24.140442 35.500648   T T T
19.880363 22.720415 34.080624   T T T
21.300390 24.140442 35.500648   T T T
22.720415 22.720415 34.080624   T T T
24.140442 24.140442 35.500648   T T T
25.560467 22.720415 34.080624   T T T
26.980494 24.140442 35.500648   T T T
28.400518 22.720415 34.080624   T T T
29.820545 24.140442 35.500648   T T T
31.240570 22.720415 34.080624   T T T
32.660595 24.140442 35.500648   T T T
34.080624 22.720415 34.080624   T T T
35.500648 24.140442 35.500648   T T T
36.920673 22.720415 34.080624   T T T
38.340698 24.140442 35.500648   T T T
39.760727 22.720415 34.080624   T T T
41.180752 24.140442 35.500648   T T T
42.600777 22.720415 34.080624   T T T
44.020802 24.140442 35.500648   T T T
45.440830 22.720415 34.080624   T T T
46.860855 24.140442 35.500648   T T T
48.280884 22.720415 34.080624   T T T
49.700909 24.140442 35.500648   T T T
7.100130 26.980494 35.500648   T T T
8.520155 25.560467 34.080624   T T T
9.940182 26.980494 35.500648   T T T
11.360209 25.560467 34.080624   T T T
12.780233 26.980494 35.500648   T T T
14.200259 25.560467 34.080624   T T T
15.620285 26.980494 35.500648   T T T
17.040312 25.560467 34.080624   T T T
18.460339 26.980494 35.500648   T T T
19.880363 25.560467 34.080624   T T T
21.300390 26.980494 35.500648   T T T
22.720415 25.560467 34.080624   T T T
24.140442 26.980494 35.500648   T T T
25.560467 25.560467 34.080624   T T T
26.980494 26.980494 35.500648   T T T
28.400518 25.560467 34.080624   T T T
29.820545 26.980494 35.500648   T T T
31.240570 25.560467 34.080624   T T T
32.660595 26.980494 35.500648   T T T
34.080624 25.560467 34.080624   T T T
35.500648 26.980494 35.500648   T T T
36.920673 25.560467 34.080624   T T T
38.340698 26.980494 35.500648   T T T
39.760727 25.560467 34.080624   T T T
41.180752 26.980494 35.500648   T T T
42.600777 25.560467 34.080624   T T T
44.020802 26.980494 35.500648   T T T
45.440830 25.560467 34.080624   T T T
46.860855 26.980494 35.500648   T T T
48.280884 25.560467 34.080624   T T T
49.700909 26.980494 35.500648   T T T
7.100130 29.820545 35.500648   T T T
8.520155 28.400518 34.080624   T T T
9.940182 29.820545 35.500648   T T T
11.360209 28.400518 34.080624   T T T
12.780233 29.820545 35.500648   T T T
14.200259 28.400518 34.080624   T T T
15.620285 29.820545 35.500648   T T T
17.040312 28.400518 34.080624   T T T
18.460339 29.820545 35.500648   T T T
19.880363 28.400518 34.080624   T T T
21.300390 29.820545 35.500648   T T T
22.720415 28.400518 34.080624   T T T
24.140442 29.820545 35.500648   T T T
25.560467 28.400518 34.080624   T T T
26.980494 29.820545 35.500648   T T T
28.400518 28.400518 34.080624   T T T
29.820545 29.820545 35.500648   T T T
31.240570 28.400518 34.080624   T T T
32.660595 29.820545 35.500648   T T T
34.080624 28.400518 34.080624   T T T
35.500648 29.820545 35.500648   T T T
36.920673 28.400518 34.080624   T T T
38.340698 29.820545 35.500648   T T T
39.760727 28.400518 34.080624   T T T
41.180752 29.820545 35.500648   T T T
42.600777 28.400518 34.080624   T T T
44.020802 29.820545 35.500648   T T T
45.440830 28.400518 34.080624   T T T
46.860855 29.820545 35.500648   T T T
48.280884 28.400518 34.080624   T T T
49.700909 29.820545 35.500648   T T T
7.100130 32.660595 35.500648   T T T
8.520155 31.240570 34.080624   T T T
9.940182 32.660595 35.500648   T T T
11.360209 31.240570 34.080624   T T T
12.780233 32.660595 35.500648   T T T
14.200259 31.240570 34.080624   T T T
15.620285 32.660595 35.500648   T T T
17.040312 31.240570 34.080624   T T T
18.460339 32.660595 35.500648   T T T
19.880363 31.240570 34.080624   T T T
21.300390 32.660595 35.500648   T T T
22.720415 31.240570 34.080624   T T T
24.140442 32.660595 35.500648   T T T
25.560467 31.240570 34.080624   T T T
26.980494 32.660595 35.500648   T T T
28.400518 31.240570 34.080624   T T T
29.820545 32.660595 35.500648   T T T
31.240570 31.240570 34.080624   T T T
32.660595 32.660595 35.500648   T T T
34.080624 31.240570 34.080624   T T T
35.500648 32.660595 35.500648   T T T
36.920673 31.240570 34.080624   T T T
38.340698 32.660595 35.500648   T T T
39.760727 31.240570 34.080624   T T T
41.180752 32.660595 35.500648   T T T
42.600777 31.240570 34.080624   T T T
44.020802 32.660595 35.500648   T T T
45.440830 31.240570 34.080624   T T T
46.860855 32.660595 35.500648   T T T
48.280884 31.240570 34.080624   T T T
49.700909 32.660595 35.500648   T T T
7.100130 35.500648 35.500648   T T T
8.520155 34.080624 34.080624   T T T
9.940182 35.500648 35.500648   T T T
11.360209 34.080624 34.080624   T T T
12.780233 35.500648 35.500648   T T T
14.200259 34.080624 34.080624   T T T
15.620285 35.500648 35.500648   T T T
17.040312 34.080624 34.080624   T T T
18.460339 35.500648 35.500648   T T T
19.880363 34.080624 34.080624   T T T
21.300390 35.500648 35.500648   T T T
22.720415 34.080624 34.080624   T T T
24.140442 35.500648 35.500648   T T T
25.560467 34.080624 34.080624   T T T
26.980494 35.500648 35.500648   T T T
28.400518 34.080624 34.080624   T T T
29.820545 35.500648 35.500648   T T T
31.240570 34.080624 34.080624   T T T
32.660595 35.500648 35.500648   T T T
34.080624 34.080624 34.080624   T T T
35.500648 35.500648 35.500648   T T T
36.920673 34.080624 34.080624   T T T
38.340698 35.500648 35.500648   T T T
39.760727 34.080624 34.080624   T T T
41.180752 35.500648 35.500648   T T T
42.600777 34.080624 34.080624   T T T
44.020802 35.500648 35.500648   T T T
45.440830 34.080624 34.080624   T T T
46.860855 35.500648 35.500648   T T T
48.280884 34.080624 34.080624   T T T
49.700909 35.500648 35.500648   T T T
7.100130 38.340698 35.500648   T T T
8.520155 36.920673 34.080624   T T T
9.940182 38.340698 35.500648   T T T
11.360209 36.920673 34.080624   T T T
12.780233 38.340698 35.500648   T T T
14.200259 36.920673 34.080624   T T T
15.620285 38.340698 35.500648   T T T
17.040312 36.920673 34.080624   T T T
18.460339 38.340698 35.500648   T T T
19.880363 36.920673 34.080624   T T T
21.300390 38.340698 35.500648   T T T
22.720415 36.920673 34.080624   T T T
24.140442 38.340698 35.500648   T T T
25.560467 36.920673 34.080624   T T T
26.980494 38.340698 35.500648   T T T
28.400518 36.920673 34.080624   T T T
29.820545 38.340698 35.500648   T T T
31.240570 36.920673 34.080624   T T T
32.660595 38.340698 35.500648   T T T
34.080624 36.920673 34.080624   T T T
35.500648 38.340698 35.500648   T T T
36.920673 36.920673 34.080624   T T T
38.340698 38.340698 35.500648   T T T
39.760727 36.920673 34.080624   T T T
41.180752 38.340698 35.500648   T T T
42.600777 36.920673 34.080624   T T T
44.020802 38.340698 35.500648   T T T
45.440830 36.920673 34.080624   T T T
46.860855 38.340698 35.500648   T T T
48.280884 36.920673 34.080624   T T T
49.700909 38.340698 35.500648   T T T
8.520155 39.760727 34.080624   T T T
9.940182 41.180752 35.500648   T T T
11.360209 39.760727 34.080624   T T T
12.780233 41.180752 35.500648   T T T
14.200259 39.760727 34.080624   T T T
15.620285 41.180752 35.500648   T T T
17.040312 39.760727 34.080624   T T T
18.460339 41.180752 35.500648   T T T
19.880363 39.760727 34.080624   T T T
21.300390 41.180752 35.500648   T T T
22.720415 39.760727 34.080624   T T T
24.140442 41.180752 35.500648   T T T
25.560467 39.760727 34.080624   T T T
26.980494 41.180752 35.500648   T T T
28.400518 39.760727 34.080624   T T T
29.820545 41.180752 35.500648   T T T
31.240570 39.760727 34.080624   T T T
32.660595 41.180752 35.500648   T T T
34.080624 39.760727 34.080624   T T T
35.500648 41.180752 35.500648   T T T
36.920673 39.760727 34.080624   T T T
38.340698 41.180752 35.500648   T T T
39.760727 39.760727 34.080624   T T T
41.180752 41.180752 35.500648   T T T
42.600777 39.760727 34.080624   T T T
44.020802 41.180752 35.500648   T T T
45.440830 39.760727 34.080624   T T T
46.860855 41.180752 35.500648   T T T
48.280884 39.760727 34.080624   T T T
11.360209 42.600777 34.080624   T T T
12.780233 44.020802 35.500648   T T T
14.200259 42.600777 34.080624   T T T
15.620285 44.020802 35.500648   T T T
17.040312 42.600777 34.080624   T T T
18.460339 44.020802 35.500648   T T T
19.880363 42.600777 34.080624   T T T
21.300390 44.020802 35.500648   T T T
22.720415 42.600777 34.080624   T T T
24.140442 44.020802 35.500648   T T T
25.560467 42.600777 34.080624   T T T
26.980494 44.020802 35.500648   T T T
28.400518 42.600777 34.080624   T T T
29.820545 44.020802 35.500648   T T T
31.240570 42.600777 34.080624   T T T
32.660595 44.020802 35.500648   T T T
34.080624 42.600777 34.080624   T T T
35.500648 44.020802 35.500648   T T T
36.920673 42.600777 34.080624   T T T
38.340698 44.020802 35.500648   T T T
39.760727 42.600777 34.080624   T T T
41.180752 44.020802 35.500648   T T T
42.600777 42.600777 34.080624   T T T
44.020802 44.020802 35.500648   T T T
45.440830 42.600777 34.080624   T T T
14.200259 45.440830 34.080624   T T T
15.620285 46.860855 35.500648   T T T
17.040312 45.440830 34.080624   T T T
18.460339 46.860855 35.500648   T T T
19.880363 45.440830 34.080624   T T T
21.300390 46.860855 35.500648   T T T
22.720415 45.440830 34.080624   T T T
24.140442 46.860855 35.500648   T T T
25.560467 45.440830 34.080624   T T T
26.980494 46.860855 35.500648   T T T
28.400518 45.440830 34.080624   T T T
29.820545 46.860855 35.500648   T T T
31.240570 45.440830 34.080624   T T T
32.660595 46.860855 35.500648   T T T
34.080624 45.440830 34.080624   T T T
35.500648 46.860855 35.500648   T T T
36.920673 45.440830 34.080624   T T T
38.340698 46.860855 35.500648   T T T
39.760727 45.440830 34.080624   T T T
41.180752 46.860855 35.500648   T T T
42.600777 45.440830 34.080624   T T T
17.040312 48.280884 34.080624   T T T
18.460339 49.700909 35.500648   T T T
19.880363 48.280884 34.080624   T T T
21.300390 49.700909 35.500648   T T T
22.720415 48.280884 34.080624   T T T
24.140442 49.700909 35.500648   T T T
25.560467 48.280884 34.080624   T T T
26.980494 49.700909 35.500648   T T T
28.400518 48.280884 34.080624   T T T
29.820545 49.700909 35.500648   T T T
31.240570 48.280884 34.080624   T T T
32.660595 49.700909 35.500648   T T T
34.080624 48.280884 34.080624   T T T
35.500648 49.700909 35.500648   T T T
36.920673 48.280884 34.080624   T T T
38.340698 49.700909 35.500648   T T T
39.760727 48.280884 34.080624   T T T
21.300390 7.100130 38.340698   T T T
24.140442 7.100130 38.340698   T T T
26.980494 7.100130 38.340698   T T T
29.820545 7.100130 38.340698   T T T
32.660595 7.100130 38.340698   T T T
35.500648 7.100130 38.340698   T T T
17.040312 8.520155 36.920673   T T T
18.460339 9.940182 38.340698   T T T
19.880363 8.520155 36.920673   T T T
21.300390 9.940182 38.340698   T T T
22.720415 8.520155 36.920673   T T T
24.140442 9.940182 38.340698   T T T
25.560467 8.520155 36.920673   T T T
26.980494 9.940182 38.340698   T T T
28.400518 8.520155 36.920673   T T T
29.820545 9.940182 38.340698   T T T
31.240570 8.520155 36.920673   T T T
32.660595 9.940182 38.340698   T T T
34.080624 8.520155 36.920673   T T T
35.500648 9.940182 38.340698   T T T
36.920673 8.520155 36.920673   T T T
38.340698 9.940182 38.340698   T T T
39.760727 8.520155 36.920673   T T T
14.200259 11.360209 36.920673   T T T
15.620285 12.780233 38.340698   T T T
17.040312 11.360209 36.920673   T T T
18.460339 12.780233 38.340698   T T T
19.880363 11.360209 36.920673   T T T
21.300390 12.780233 38.340698   T T T
22.720415 11.360209 36.920673   T T T
24.140442 12.780233 38.340698   T T T
25.560467 11.360209 36.920673   T T T
26.980494 12.780233 38.340698   T T T
28.400518 11.360209 36.920673   T T T
29.820545 12.780233 38.340698   T T T
31.240570 11.360209 36.920673   T T T
32.660595 12.780233 38.340698   T T T
34.080624 11.360209 36.920673   T T T
35.500648 12.780233 38.340698   T T T
36.920673 11.360209 36.920673   T T T
38.340698 12.780233 38.340698   T T T
39.760727 11.360209 36.920673   T T T
41.180752 12.780233 38.340698   T T T
42.600777 11.360209 36.920673   T T T
11.360209 14.200259 36.920673   T T T
12.780233 15.620285 38.340698   T T T
14.200259 14.200259 36.920673   T T T
15.620285 15.620285 38.340698   T T T
17.040312 14.200259 36.920673   T T T
18.460339 15.620285 38.340698   T T T
19.880363 14.200259 36.920673   T T T
21.300390 15.620285 38.340698   T T T
22.720415 14.200259 36.920673   T T T
24.140442 15.620285 38.340698   T T T
25.560467 14.200259 36.920673   T T T
26.980494 15.620285 38.340698   T T T
28.400518 14.200259 36.920673   T T T
29.820545 15.620285 38.340698   T T T
31.240570 14.200259 36.920673   T T T
32.660595 15.620285 38.340698   T T T
34.080624 14.200259 36.920673   T T T
35.500648 15.620285 38.340698   T T T
36.920673 14.200259 36.920673   T T T
38.340698 15.620285 38.340698   T T T
39.760727 14.200259 36.920673   T T T
41.180752 15.620285 38.340698   T T T
42.600777 14.200259 36.920673   T T T
44.020802 15.620285 38.340698   T T T
45.440830 14.200259 36.920673   T T T
8.520155 17.040312 36.920673   T T T
9.940182 18.460339 38.340698   T T T
11.360209 17.040312 36.920673   T T T
12.780233 18.460339 38.340698   T T T
14.200259 17.040312 36.920673   T T T
15.620285 18.460339 38.340698   T T T
17.040312 17.040312 36.920673   T T T
18.460339 18.460339 38.340698   T T T
19.880363 17.040312 36.920673   T T T
21.300390 18.460339 38.340698   T T T
22.720415 17.040312 36.920673   T T T
24.140442 18.460339 38.340698   T T T
25.560467 17.040312 36.920673   T T T
26.980494 18.460339 38.340698   T T T
28.400518 17.040312 36.920673   T T T
29.820545 18.460339 38.340698   T T T
31.240570 17.040312 36.920673   T T T
32.660595 18.460339 38.340698   T T T
34.080624 17.040312 36.920673   T T T
35.500648 18.460339 38.340698   T T T
36.920673 17.040312 36.920673   T T T
38.340698 18.460339 38.340698   T T T
39.760727 17.040312 36.920673   T T T
41.180752 18.460339 38.340698   T T T
42.600777 17.040312 36.920673   T T T
44.020802 18.460339 38.340698   T T T
45.440830 17.040312 36.920673   T T T
46.860855 18.460339 38.340698   T T T
48.280884 17.040312 36.920673   T T T
7.100130 21.300390 38.340698   T T T
8.520155 19.880363 36.920673   T T T
9.940182 21.300390 38.340698   T T T
11.360209 19.880363 36.920673   T T T
12.780233 21.300390 38.340698   T T T
14.200259 19.880363 36.920673   T T T
15.620285 21.300390 38.340698   T T T
17.040312 19.880363 36.920673   T T T
18.460339 21.300390 38.340698   T T T
19.880363 19.880363 36.920673   T T T
21.300390 21.300390 38.340698   T T T
22.720415 19.880363 36.920673   T T T
24.140442 21.300390 38.340698   T T T
25.560467 19.880363 36.920673   T T T
26.980494 21.300390 38.340698   T T T
28.400518 19.880363 36.920673   T T T
29.820545 21.300390 38.340698   T T T
31.240570 19.880363 36.920673   T T T
32.660595 21.300390 38.340698   T T T
34.080624 19.880363 36.920673   T T T
35.500648 21.300390 38.340698   T T T
36.920673 19.880363 36.920673   T T T
38.340698 21.300390 38.340698   T T T
39.760727 19.880363 36.920673   T T T
41.180752 21.300390 38.340698   T T T
42.600777 19.880363 36.920673   T T T
44.020802 21.300390 38.340698   T T T
45.440830 19.880363 36.920673   T T T
46.860855 21.300390 38.340698   T T T
48.280884 19.880363 36.920673   T T T
49.700909 21.300390 38.340698   T T T
7.100130 24.140442 38.340698   T T T
8.520155 22.720415 36.920673   T T T
9.940182 24.140442 38.340698   T T T
11.360209 22.720415 36.920673   T T T
12.780233 24.140442 38.340698   T T T
14.200259 22.720415 36.920673   T T T
15.620285 24.140442 38.340698   T T T
17.040312 22.720415 36.920673   T T T
18.460339 24.140442 38.340698   T T T
19.880363 22.720415 36.920673   T T T
21.300390 24.140442 38.340698   T T T
22.720415 22.720415 36.920673   T T T
24.140442 24.140442 38.340698   T T T
25.560467 22.720415 36.920673   T T T
26.980494 24.140442 38.340698   T T T
28.400518 22.720415 36.920673   T T T
29.820545 24.140442 38.340698   T T T
31.240570 22.720415 36.920673   T T T
32.660595 24.140442 38.340698   T T T
34.080624 22.720415 36.920673   T T T
35.500648 24.140442 38.340698   T T T
36.920673 22.720415 36.920673   T T T
38.340698 24.140442 38.340698   T T T
39.760727 22.720415 36.920673   T T T
41.180752 24.140442 38.340698   T T T
42.600777 22.720415 36.920673   T T T
44.020802 24.140442 38.340698   T T T
45.440830 22.720415 36.920673   T T T
46.860855 24.140442 38.340698   T T T
48.280884 22.720415 36.920673   T T T
49.700909 24.140442 38.340698   T T T
7.100130 26.980494 38.340698   T T T
8.520155 25.560467 36.920673   T T T
9.940182 26.980494 38.340698   T T T
11.360209 25.560467 36.920673   T T T
12.780233 26.980494 38.340698   T T T
14.200259 25.560467 36.920673   T T T
15.620285 26.980494 38.340698   T T T
17.040312 25.560467 36.920673   T T T
18.460339 26.980494 38.340698   T T T
19.880363 25.560467 36.920673   T T T
21.300390 26.980494 38.340698   T T T
22.720415 25.560467 36.920673   T T T
24.140442 26.980494 38.340698   T T T
25.560467 25.560467 36.920673   T T T
26.980494 26.980494 38.340698   T T T
28.400518 25.560467 36.920673   T T T
29.820545 26.980494 38.340698   T T T
31.240570 25.560467 36.920673   T T T
32.660595 26.980494 38.340698   T T T
34.080624 25.560467 36.920673   T T T
35.500648 26.980494 38.340698   T T T
36.920673 25.560467 36.920673   T T T
38.340698 26.980494 38.340698   T T T
39.760727 25.560467 36.920673   T T T
41.180752 26.980494 38.340698   T T T
42.600777 25.560467 36.920673   T T T
44.020802 26.980494 38.340698   T T T
45.440830 25.560467 36.920673   T T T
46.860855 26.980494 38.340698   T T T
48.280884 25.560467 36.920673   T T T
49.700909 26.980494 38.340698   T T T
7.100130 29.820545 38.340698   T T T
8.520155 28.400518 36.920673   T T T
9.940182 29.820545 38.340698   T T T
11.360209 28.400518 36.920673   T T T
12.780233 29.820545 38.340698   T T T
14.200259 28.400518 36.920673   T T T
15.620285 29.820545 38.340698   T T T
17.040312 28.400518 36.920673   T T T
18.460339 29.820545 38.340698   T T T
19.880363 28.400518 36.920673   T T T
21.300390 29.820545 38.340698   T T T
22.720415 28.400518 36.920673   T T T
24.140442 29.820545 38.340698   T T T
25.560467 28.400518 36.920673   T T T
26.980494 29.820545 38.340698   T T T
28.400518 28.400518 36.920673   T T T
29.820545 29.820545 38.340698   T T T
31.240570 28.400518 36.920673   T T T
32.660595 29.820545 38.340698   T T T
34.080624 28.400518 36.920673   T T T
35.500648 29.820545 38.340698   T T T
36.920673 28.400518 36.920673   T T T
38.340698 29.820545 38.340698   T T T
39.760727 28.400518 36.920673   T T T
41.180752 29.820545 38.340698   T T T
42.600777 28.400518 36.920673   T T T
44.020802 29.820545 38.340698   T T T
45.440830 28.400518 36.920673   T T T
46.860855 29.820545 38.340698   T T T
48.280884 28.400518 36.920673   T T T
49.700909 29.820545 38.340698   T T T
7.100130 32.660595 38.340698   T T T
8.520155 31.240570 36.920673   T T T
9.940182 32.660595 38.340698   T T T
11.360209 31.240570 36.920673   T T T
12.780233 32.660595 38.340698   T T T
14.200259 31.240570 36.920673   T T T
15.620285 32.660595 38.340698   T T T
17.040312 31.240570 36.920673   T T T
18.460339 32.660595 38.340698   T T T
19.880363 31.240570 36.920673   T T T
21.300390 32.660595 38.340698   T T T
22.720415 31.240570 36.920673   T T T
24.140442 32.660595 38.340698   T T T
25.560467 31.240570 36.920673   T T T
26.980494 32.660595 38.340698   T T T
28.400518 31.240570 36.920673   T T T
29.820545 32.660595 38.340698   T T T
31.240570 31.240570 36.920673   T T T
32.660595 32.660595 38.340698   T T T
34.080624 31.240570 36.920673   T T T
35.500648 32.660595 38.340698   T T T
36.920673 31.240570 36.920673   T T T
38.340698 32.660595 38.340698   T T T
39.760727 31.240570 36.920673   T T T
41.180752 32.660595 38.340698   T T T
42.600777 31.240570 36.920673   T T T
44.020802 32.660595 38.340698   T T T
45.440830 31.240570 36.920673   T T T
46.860855 32.660595 38.340698   T T T
48.280884 31.240570 36.920673   T T T
49.700909 32.660595 38.340698   T T T
7.100130 35.500648 38.340698   T T T
8.520155 34.080624 36.920673   T T T
9.940182 35.500648 38.340698   T T T
11.360209 34.080624 36.920673   T T T
12.780233 35.500648 38.340698   T T T
14.200259 34.080624 36.920673   T T T
15.620285 35.500648 38.340698   T T T
17.040312 34.080624 36.920673   T T T
18.460339 35.500648 38.340698   T T T
19.880363 34.080624 36.920673   T T T
21.300390 35.500648 38.340698   T T T
22.720415 34.080624 36.920673   T T T
24.140442 35.500648 38.340698   T T T
25.560467 34.080624 36.920673   T T T
26.980494 35.500648 38.340698   T T T
28.400518 34.080624 36.920673   T T T
29.820545 35.500648 38.340698   T T T
31.240570 34.080624 36.920673   T T T
32.660595 35.500648 38.340698   T T T
34.080624 34.080624 36.920673   T T T
35.500648 35.500648 38.340698   T T T
36.920673 34.080624 36.920673   T T T
38.340698 35.500648 38.340698   T T T
39.760727 34.080624 36.920673   T T T
41.180752 35.500648 38.340698   T T T
42.600777 34.080624 36.920673   T T T
44.020802 35.500648 38.340698   T T T
45.440830 34.080624 36.920673   T T T
46.860855 35.500648 38.340698   T T T
48.280884 34.080624 36.920673   T T T
49.700909 35.500648 38.340698   T T T
8.520155 36.920673 36.920673   T T T
9.940182 38.340698 38.340698   T T T
11.360209 36.920673 36.920673   T T T
12.780233 38.340698 38.340698   T T T
14.200259 36.920673 36.920673   T T T
15.620285 38.340698 38.340698   T T T
17.040312 36.920673 36.920673   T T T
18.460339 38.340698 38.340698   T T T
19.880363 36.920673 36.920673   T T T
21.300390 38.340698 38.340698   T T T
22.720415 36.920673 36.920673   T T T
24.140442 38.340698 38.340698   T T T
25.560467 36.920673 36.920673   T T T
26.980494 38.340698 38.340698   T T T
28.400518 36.920673 36.920673   T T T
29.820545 38.340698 38.340698   T T T
31.240570 36.920673 36.920673   T T T
32.660595 38.340698 38.340698   T T T
34.080624 36.920673 36.920673   T T T
35.500648 38.340698 38.340698   T T T
36.920673 36.920673 36.920673   T T T
38.340698 38.340698 38.340698   T T T
39.760727 36.920673 36.920673   T T T
41.180752 38.340698 38.340698   T T T
42.600777 36.920673 36.920673   T T T
44.020802 38.340698 38.340698   T T T
45.440830 36.920673 36.920673   T T T
46.860855 38.340698 38.340698   T T T
48.280884 36.920673 36.920673   T T T
8.520155 39.760727 36.920673   T T T
11.360209 39.760727 36.920673   T T T
12.780233 41.180752 38.340698   T T T
14.200259 39.760727 36.920673   T T T
15.620285 41.180752 38.340698   T T T
17.040312 39.760727 36.920673   T T T
18.460339 41.180752 38.340698   T T T
19.880363 39.760727 36.920673   T T T
21.300390 41.180752 38.340698   T T T
22.720415 39.760727 36.920673   T T T
24.140442 41.180752 38.340698   T T T
25.560467 39.760727 36.920673   T T T
26.980494 41.180752 38.340698   T T T
28.400518 39.760727 36.920673   T T T
29.820545 41.180752 38.340698   T T T
31.240570 39.760727 36.920673   T T T
32.660595 41.180752 38.340698   T T T
34.080624 39.760727 36.920673   T T T
35.500648 41.180752 38.340698   T T T
36.920673 39.760727 36.920673   T T T
38.340698 41.180752 38.340698   T T T
39.760727 39.760727 36.920673   T T T
41.180752 41.180752 38.340698   T T T
42.600777 39.760727 36.920673   T T T
44.020802 41.180752 38.340698   T T T
45.440830 39.760727 36.920673   T T T
48.280884 39.760727 36.920673   T T T
11.360209 42.600777 36.920673   T T T
14.200259 42.600777 36.920673   T T T
15.620285 44.020802 38.340698   T T T
17.040312 42.600777 36.920673   T T T
18.460339 44.020802 38.340698   T T T
19.880363 42.600777 36.920673   T T T
21.300390 44.020802 38.340698   T T T
22.720415 42.600777 36.920673   T T T
24.140442 44.020802 38.340698   T T T
25.560467 42.600777 36.920673   T T T
26.980494 44.020802 38.340698   T T T
28.400518 42.600777 36.920673   T T T
29.820545 44.020802 38.340698   T T T
31.240570 42.600777 36.920673   T T T
32.660595 44.020802 38.340698   T T T
34.080624 42.600777 36.920673   T T T
35.500648 44.020802 38.340698   T T T
36.920673 42.600777 36.920673   T T T
38.340698 44.020802 38.340698   T T T
39.760727 42.600777 36.920673   T T T
41.180752 44.020802 38.340698   T T T
42.600777 42.600777 36.920673   T T T
45.440830 42.600777 36.920673   T T T
14.200259 45.440830 36.920673   T T T
17.040312 45.440830 36.920673   T T T
18.460339 46.860855 38.340698   T T T
19.880363 45.440830 36.920673   T T T
21.300390 46.860855 38.340698   T T T
22.720415 45.440830 36.920673   T T T
24.140442 46.860855 38.340698   T T T
25.560467 45.440830 36.920673   T T T
26.980494 46.860855 38.340698   T T T
28.400518 45.440830 36.920673   T T T
29.820545 46.860855 38.340698   T T T
31.240570 45.440830 36.920673   T T T
32.660595 46.860855 38.340698   T T T
34.080624 45.440830 36.920673   T T T
35.500648 46.860855 38.340698   T T T
36.920673 45.440830 36.920673   T T T
38.340698 46.860855 38.340698   T T T
39.760727 45.440830 36.920673   T T T
42.600777 45.440830 36.920673   T T T
17.040312 48.280884 36.920673   T T T
19.880363 48.280884 36.920673   T T T
21.300390 49.700909 38.340698   T T T
22.720415 48.280884 36.920673   T T T
24.140442 49.700909 38.340698   T T T
25.560467 48.280884 36.920673   T T T
26.980494 49.700909 38.340698   T T T
28.400518 48.280884 36.920673   T T T
29.820545 49.700909 38.340698   T T T
31.240570 48.280884 36.920673   T T T
32.660595 49.700909 38.340698   T T T
34.080624 48.280884 36.920673   T T T
35.500648 49.700909 38.340698   T T T
36.920673 48.280884 36.920673   T T T
39.760727 48.280884 36.920673   T T T
19.880363 8.520155 39.760727   T T T
21.300390 9.940182 41.180752   T T T
22.720415 8.520155 39.760727   T T T
24.140442 9.940182 41.180752   T T T
25.560467 8.520155 39.760727   T T T
26.980494 9.940182 41.180752   T T T
28.400518 8.520155 39.760727   T T T
29.820545 9.940182 41.180752   T T T
31.240570 8.520155 39.760727   T T T
32.660595 9.940182 41.180752   T T T
34.080624 8.520155 39.760727   T T T
35.500648 9.940182 41.180752   T T T
36.920673 8.520155 39.760727   T T T
17.040312 11.360209 39.760727   T T T
18.460339 12.780233 41.180752   T T T
19.880363 11.360209 39.760727   T T T
21.300390 12.780233 41.180752   T T T
22.720415 11.360209 39.760727   T T T
24.140442 12.780233 41.180752   T T T
25.560467 11.360209 39.760727   T T T
26.980494 12.780233 41.180752   T T T
28.400518 11.360209 39.760727   T T T
29.820545 12.780233 41.180752   T T T
31.240570 11.360209 39.760727   T T T
32.660595 12.780233 41.180752   T T T
34.080624 11.360209 39.760727   T T T
35.500648 12.780233 41.180752   T T T
36.920673 11.360209 39.760727   T T T
38.340698 12.780233 41.180752   T T T
39.760727 11.360209 39.760727   T T T
14.200259 14.200259 39.760727   T T T
15.620285 15.620285 41.180752   T T T
17.040312 14.200259 39.760727   T T T
18.460339 15.620285 41.180752   T T T
19.880363 14.200259 39.760727   T T T
21.300390 15.620285 41.180752   T T T
22.720415 14.200259 39.760727   T T T
24.140442 15.620285 41.180752   T T T
25.560467 14.200259 39.760727   T T T
26.980494 15.620285 41.180752   T T T
28.400518 14.200259 39.760727   T T T
29.820545 15.620285 41.180752   T T T
31.240570 14.200259 39.760727   T T T
32.660595 15.620285 41.180752   T T T
34.080624 14.200259 39.760727   T T T
35.500648 15.620285 41.180752   T T T
36.920673 14.200259 39.760727   T T T
38.340698 15.620285 41.180752   T T T
39.760727 14.200259 39.760727   T T T
41.180752 15.620285 41.180752   T T T
42.600777 14.200259 39.760727   T T T
11.360209 17.040312 39.760727   T T T
12.780233 18.460339 41.180752   T T T
14.200259 17.040312 39.760727   T T T
15.620285 18.460339 41.180752   T T T
17.040312 17.040312 39.760727   T T T
18.460339 18.460339 41.180752   T T T
19.880363 17.040312 39.760727   T T T
21.300390 18.460339 41.180752   T T T
22.720415 17.040312 39.760727   T T T
24.140442 18.460339 41.180752   T T T
25.560467 17.040312 39.760727   T T T
26.980494 18.460339 41.180752   T T T
28.400518 17.040312 39.760727   T T T
29.820545 18.460339 41.180752   T T T
31.240570 17.040312 39.760727   T T T
32.660595 18.460339 41.180752   T T T
34.080624 17.040312 39.760727   T T T
35.500648 18.460339 41.180752   T T T
36.920673 17.040312 39.760727   T T T
38.340698 18.460339 41.180752   T T T
39.760727 17.040312 39.760727   T T T
41.180752 18.460339 41.180752   T T T
42.600777 17.040312 39.760727   T T T
44.020802 18.460339 41.180752   T T T
45.440830 17.040312 39.760727   T T T
8.520155 19.880363 39.760727   T T T
9.940182 21.300390 41.180752   T T T
11.360209 19.880363 39.760727   T T T
12.780233 21.300390 41.180752   T T T
14.200259 19.880363 39.760727   T T T
15.620285 21.300390 41.180752   T T T
17.040312 19.880363 39.760727   T T T
18.460339 21.300390 41.180752   T T T
19.880363 19.880363 39.760727   T T T
21.300390 21.300390 41.180752   T T T
22.720415 19.880363 39.760727   T T T
24.140442 21.300390 41.180752   T T T
25.560467 19.880363 39.760727   T T T
26.980494 21.300390 41.180752   T T T
28.400518 19.880363 39.760727   T T T
29.820545 21.300390 41.180752   T T T
31.240570 19.880363 39.760727   T T T
32.660595 21.300390 41.180752   T T T
34.080624 19.880363 39.760727   T T T
35.500648 21.300390 41.180752   T T T
36.920673 19.880363 39.760727   T T T
38.340698 21.300390 41.180752   T T T
39.760727 19.880363 39.760727   T T T
41.180752 21.300390 41.180752   T T T
42.600777 19.880363 39.760727   T T T
44.020802 21.300390 41.180752   T T T
45.440830 19.880363 39.760727   T T T
46.860855 21.300390 41.180752   T T T
48.280884 19.880363 39.760727   T T T
8.520155 22.720415 39.760727   T T T
9.940182 24.140442 41.180752   T T T
11.360209 22.720415 39.760727   T T T
12.780233 24.140442 41.180752   T T T
14.200259 22.720415 39.760727   T T T
15.620285 24.140442 41.180752   T T T
17.040312 22.720415 39.760727   T T T
18.460339 24.140442 41.180752   T T T
19.880363 22.720415 39.760727   T T T
21.300390 24.140442 41.180752   T T T
22.720415 22.720415 39.760727   T T T
24.140442 24.140442 41.180752   T T T
25.560467 22.720415 39.760727   T T T
26.980494 24.140442 41.180752   T T T
28.400518 22.720415 39.760727   T T T
29.820545 24.140442 41.180752   T T T
31.240570 22.720415 39.760727   T T T
32.660595 24.140442 41.180752   T T T
34.080624 22.720415 39.760727   T T T
35.500648 24.140442 41.180752   T T T
36.920673 22.720415 39.760727   T T T
38.340698 24.140442 41.180752   T T T
39.760727 22.720415 39.760727   T T T
41.180752 24.140442 41.180752   T T T
42.600777 22.720415 39.760727   T T T
44.020802 24.140442 41.180752   T T T
45.440830 22.720415 39.760727   T T T
46.860855 24.140442 41.180752   T T T
48.280884 22.720415 39.760727   T T T
8.520155 25.560467 39.760727   T T T
9.940182 26.980494 41.180752   T T T
11.360209 25.560467 39.760727   T T T
12.780233 26.980494 41.180752   T T T
14.200259 25.560467 39.760727   T T T
15.620285 26.980494 41.180752   T T T
17.040312 25.560467 39.760727   T T T
18.460339 26.980494 41.180752   T T T
19.880363 25.560467 39.760727   T T T
21.300390 26.980494 41.180752   T T T
22.720415 25.560467 39.760727   T T T
24.140442 26.980494 41.180752   T T T
25.560467 25.560467 39.760727   T T T
26.980494 26.980494 41.180752   T T T
28.400518 25.560467 39.760727   T T T
29.820545 26.980494 41.180752   T T T
31.240570 25.560467 39.760727   T T T
32.660595 26.980494 41.180752   T T T
34.080624 25.560467 39.760727   T T T
35.500648 26.980494 41.180752   T T T
36.920673 25.560467 39.760727   T T T
38.340698 26.980494 41.180752   T T T
39.760727 25.560467 39.760727   T T T
41.180752 26.980494 41.180752   T T T
42.600777 25.560467 39.760727   T T T
44.020802 26.980494 41.180752   T T T
45.440830 25.560467 39.760727   T T T
46.860855 26.980494 41.180752   T T T
48.280884 25.560467 39.760727   T T T
8.520155 28.400518 39.760727   T T T
9.940182 29.820545 41.180752   T T T
11.360209 28.400518 39.760727   T T T
12.780233 29.820545 41.180752   T T T
14.200259 28.400518 39.760727   T T T
15.620285 29.820545 41.180752   T T T
17.040312 28.400518 39.760727   T T T
18.460339 29.820545 41.180752   T T T
19.880363 28.400518 39.760727   T T T
21.300390 29.820545 41.180752   T T T
22.720415 28.400518 39.760727   T T T
24.140442 29.820545 41.180752   T T T
25.560467 28.400518 39.760727   T T T
26.980494 29.820545 41.180752   T T T
28.400518 28.400518 39.760727   T T T
29.820545 29.820545 41.180752   T T T
31.240570 28.400518 39.760727   T T T
32.660595 29.820545 41.180752   T T T
34.080624 28.400518 39.760727   T T T
35.500648 29.820545 41.180752   T T T
36.920673 28.400518 39.760727   T T T
38.340698 29.820545 41.180752   T T T
39.760727 28.400518 39.760727   T T T
41.180752 29.820545 41.180752   T T T
42.600777 28.400518 39.760727   T T T
44.020802 29.820545 41.180752   T T T
45.440830 28.400518 39.760727   T T T
46.860855 29.820545 41.180752   T T T
48.280884 28.400518 39.760727   T T T
8.520155 31.240570 39.760727   T T T
9.940182 32.660595 41.180752   T T T
11.360209 31.240570 39.760727   T T T
12.780233 32.660595 41.180752   T T T
14.200259 31.240570 39.760727   T T T
15.620285 32.660595 41.180752   T T T
17.040312 31.240570 39.760727   T T T
18.460339 32.660595 41.180752   T T T
19.880363 31.240570 39.760727   T T T
21.300390 32.660595 41.180752   T T T
22.720415 31.240570 39.760727   T T T
24.140442 32.660595 41.180752   T T T
25.560467 31.240570 39.760727   T T T
26.980494 32.660595 41.180752   T T T
28.400518 31.240570 39.760727   T T T
29.820545 32.660595 41.180752   T T T
31.240570 31.240570 39.760727   T T T
32.660595 32.660595 41.180752   T T T
34.080624 31.240570 39.760727   T T T
35.500648 32.660595 41.180752   T T T
36.920673 31.240570 39.760727   T T T
38.340698 32.660595 41.180752   T T T
39.760727 31.240570 39.760727   T T T
41.180752 32.660595 41.180752   T T T
42.600777 31.240570 39.760727   T T T
44.020802 32.660595 41.180752   T T T
45.440830 31.240570 39.760727   T T T
46.860855 32.660595 41.180752   T T T
48.280884 31.240570 39.760727   T T T
8.520155 34.080624 39.760727   T T T
9.940182 35.500648 41.180752   T T T
11.360209 34.080624 39.760727   T T T
12.780233 35.500648 41.180752   T T T
14.200259 34.080624 39.760727   T T T
15.620285 35.500648 41.180752   T T T
17.040312 34.080624 39.760727   T T T
18.460339 35.500648 41.180752   T T T
19.880363 34.080624 39.760727   T T T
21.300390 35.500648 41.180752   T T T
22.720415 34.080624 39.760727   T T T
24.140442 35.500648 41.180752   T T T
25.560467 34.080624 39.760727   T T T
26.980494 35.500648 41.180752   T T T
28.400518 34.080624 39.760727   T T T
29.820545 35.500648 41.180752   T T T
31.240570 34.080624 39.760727   T T T
32.660595 35.500648 41.180752   T T T
34.080624 34.080624 39.760727   T T T
35.500648 35.500648 41.180752   T T T
36.920673 34.080624 39.760727   T T T
38.340698 35.500648 41.180752   T T T
39.760727 34.080624 39.760727   T T T
41.180752 35.500648 41.180752   T T T
42.600777 34.080624 39.760727   T T T
44.020802 35.500648 41.180752   T T T
45.440830 34.080624 39.760727   T T T
46.860855 35.500648 41.180752   T T T
48.280884 34.080624 39.760727   T T T
8.520155 36.920673 39.760727   T T T
11.360209 36.920673 39.760727   T T T
12.780233 38.340698 41.180752   T T T
14.200259 36.920673 39.760727   T T T
15.620285 38.340698 41.180752   T T T
17.040312 36.920673 39.760727   T T T
18.460339 38.340698 41.180752   T T T
19.880363 36.920673 39.760727   T T T
21.300390 38.340698 41.180752   T T T
22.720415 36.920673 39.760727   T T T
24.140442 38.340698 41.180752   T T T
25.560467 36.920673 39.760727   T T T
26.980494 38.340698 41.180752   T T T
28.400518 36.920673 39.760727   T T T
29.820545 38.340698 41.180752   T T T
31.240570 36.920673 39.760727   T T T
32.660595 38.340698 41.180752   T T T
34.080624 36.920673 39.760727   T T T
35.500648 38.340698 41.180752   T T T
36.920673 36.920673 39.760727   T T T
38.340698 38.340698 41.180752   T T T
39.760727 36.920673 39.760727   T T T
41.180752 38.340698 41.180752   T T T
42.600777 36.920673 39.760727   T T T
44.020802 38.340698 41.180752   T T T
45.440830 36.920673 39.760727   T T T
48.280884 36.920673 39.760727   T T T
11.360209 39.760727 39.760727   T T T
14.200259 39.760727 39.760727   T T T
15.620285 41.180752 41.180752   T T T
17.040312 39.760727 39.760727   T T T
18.460339 41.180752 41.180752   T T T
19.880363 39.760727 39.760727   T T T
21.300390 41.180752 41.180752   T T T
22.720415 39.760727 39.760727   T T T
24.140442 41.180752 41.180752   T T T
25.560467 39.760727 39.760727   T T T
26.980494 41.180752 41.180752   T T T
28.400518 39.760727 39.760727   T T T
29.820545 41.180752 41.180752   T T T
31.240570 39.760727 39.760727   T T T
32.660595 41.180752 41.180752   T T T
34.080624 39.760727 39.760727   T T T
35.500648 41.180752 41.180752   T T T
36.920673 39.760727 39.760727   T T T
38.340698 41.180752 41.180752   T T T
39.760727 39.760727 39.760727   T T T
41.180752 41.180752 41.180752   T T T
42.600777 39.760727 39.760727   T T T
45.440830 39.760727 39.760727   T T T
14.200259 42.600777 39.760727   T T T
17.040312 42.600777 39.760727   T T T
18.460339 44.020802 41.180752   T T T
19.880363 42.600777 39.760727   T T T
21.300390 44.020802 41.180752   T T T
22.720415 42.600777 39.760727   T T T
24.140442 44.020802 41.180752   T T T
25.560467 42.600777 39.760727   T T T
26.980494 44.020802 41.180752   T T T
28.400518 42.600777 39.760727   T T T
29.820545 44.020802 41.180752   T T T
31.240570 42.600777 39.760727   T T T
32.660595 44.020802 41.180752   T T T
34.080624 42.600777 39.760727   T T T
35.500648 44.020802 41.180752   T T T
36.920673 42.600777 39.760727   T T T
38.340698 44.020802 41.180752   T T T
39.760727 42.600777 39.760727   T T T
42.600777 42.600777 39.760727   T T T
17.040312 45.440830 39.760727   T T T
19.880363 45.440830 39.760727   T T T
21.300390 46.860855 41.180752   T T T
22.720415 45.440830 39.760727   T T T
24.140442 46.860855 41.180752   T T T
25.560467 45.440830 39.760727   T T T
26.980494 46.860855 41.180752   T T T
28.400518 45.440830 39.760727   T T T
29.820545 46.860855 41.180752   T T T
31.240570 45.440830 39.760727   T T T
32.660595 46.860855 41.180752   T T T
34.080624 45.440830 39.760727   T T T
35.500648 46.860855 41.180752   T T T
36.920673 45.440830 39.760727   T T T
39.760727 45.440830 39.760727   T T T
19.880363 48.280884 39.760727   T T T
22.720415 48.280884 39.760727   T T T
25.560467 48.280884 39.760727   T T T
28.400518 48.280884 39.760727   T T T
31.240570 48.280884 39.760727   T T T
34.080624 48.280884 39.760727   T T T
36.920673 48.280884 39.760727   T T T
19.880363 11.360209 42.600777   T T T
21.300390 12.780233 44.020802   T T T
22.720415 11.360209 42.600777   T T T
24.140442 12.780233 44.020802   T T T
25.560467 11.360209 42.600777   T T T
26.980494 12.780233 44.020802   T T T
28.400518 11.360209 42.600777   T T T
29.820545 12.780233 44.020802   T T T
31.240570 11.360209 42.600777   T T T
32.660595 12.780233 44.020802   T T T
34.080624 11.360209 42.600777   T T T
35.500648 12.780233 44.020802   T T T
36.920673 11.360209 42.600777   T T T
17.040312 14.200259 42.600777   T T T
18.460339 15.620285 44.020802   T T T
19.880363 14.200259 42.600777   T T T
21.300390 15.620285 44.020802   T T T
22.720415 14.200259 42.600777   T T T
24.140442 15.620285 44.020802   T T T
25.560467 14.200259 42.600777   T T T
26.980494 15.620285 44.020802   T T T
28.400518 14.200259 42.600777   T T T
29.820545 15.620285 44.020802   T T T
31.240570 14.200259 42.600777   T T T
32.660595 15.620285 44.020802   T T T
34.080624 14.200259 42.600777   T T T
35.500648 15.620285 44.020802   T T T
36.920673 14.200259 42.600777   T T T
38.340698 15.620285 44.020802   T T T
39.760727 14.200259 42.600777   T T T
14.200259 17.040312 42.600777   T T T
15.620285 18.460339 44.020802   T T T
17.040312 17.040312 42.600777   T T T
18.460339 18.460339 44.020802   T T T
19.880363 17.040312 42.600777   T T T
21.300390 18.460339 44.020802   T T T
22.720415 17.040312 42.600777   T T T
24.140442 18.460339 44.020802   T T T
25.560467 17.040312 42.600777   T T T
26.980494 18.460339 44.020802   T T T
28.400518 17.040312 42.600777   T T T
29.820545 18.460339 44.020802   T T T
31.240570 17.040312 42.600777   T T T
32.660595 18.460339 44.020802   T T T
34.080624 17.040312 42.600777   T T T
35.500648 18.460339 44.020802   T T T
36.920673 17.040312 42.600777   T T T
38.340698 18.460339 44.020802   T T T
39.760727 17.040312 42.600777   T T T
41.180752 18.460339 44.020802   T T T
42.600777 17.040312 42.600777   T T T
11.360209 19.880363 42.600777   T T T
12.780233 21.300390 44.020802   T T T
14.200259 19.880363 42.600777   T T T
15.620285 21.300390 44.020802   T T T
17.040312 19.880363 42.600777   T T T
18.460339 21.300390 44.020802   T T T
19.880363 19.880363 42.600777   T T T
21.300390 21.300390 44.020802   T T T
22.720415 19.880363 42.600777   T T T
24.140442 21.300390 44.020802   T T T
25.560467 19.880363 42.600777   T T T
26.980494 21.300390 44.020802   T T T
28.400518 19.880363 42.600777   T T T
29.820545 21.300390 44.020802   T T T
31.240570 19.880363 42.600777   T T T
32.660595 21.300390 44.020802   T T T
34.080624 19.880363 42.600777   T T T
35.500648 21.300390 44.020802   T T T
36.920673 19.880363 42.600777   T T T
38.340698 21.300390 44.020802   T T T
39.760727 19.880363 42.600777   T T T
41.180752 21.300390 44.020802   T T T
42.600777 19.880363 42.600777   T T T
44.020802 21.300390 44.020802   T T T
45.440830 19.880363 42.600777   T T T
11.360209 22.720415 42.600777   T T T
12.780233 24.140442 44.020802   T T T
14.200259 22.720415 42.600777   T T T
15.620285 24.140442 44.020802   T T T
17.040312 22.720415 42.600777   T T T
18.460339 24.140442 44.020802   T T T
19.880363 22.720415 42.600777   T T T
21.300390 24.140442 44.020802   T T T
22.720415 22.720415 42.600777   T T T
24.140442 24.140442 44.020802   T T T
25.560467 22.720415 42.600777   T T T
26.980494 24.140442 44.020802   T T T
28.400518 22.720415 42.600777   T T T
29.820545 24.140442 44.020802   T T T
31.240570 22.720415 42.600777   T T T
32.660595 24.140442 44.020802   T T T
34.080624 22.720415 42.600777   T T T
35.500648 24.140442 44.020802   T T T
36.920673 22.720415 42.600777   T T T
38.340698 24.140442 44.020802   T T T
39.760727 22.720415 42.600777   T T T
41.180752 24.140442 44.020802   T T T
42.600777 22.720415 42.600777   T T T
44.020802 24.140442 44.020802   T T T
45.440830 22.720415 42.600777   T T T
11.360209 25.560467 42.600777   T T T
12.780233 26.980494 44.020802   T T T
14.200259 25.560467 42.600777   T T T
15.620285 26.980494 44.020802   T T T
17.040312 25.560467 42.600777   T T T
18.460339 26.980494 44.020802   T T T
19.880363 25.560467 42.600777   T T T
21.300390 26.980494 44.020802   T T T
22.720415 25.560467 42.600777   T T T
24.140442 26.980494 44.020802   T T T
25.560467 25.560467 42.600777   T T T
26.980494 26.980494 44.020802   T T T
28.400518 25.560467 42.600777   T T T
29.820545 26.980494 44.020802   T T T
31.240570 25.560467 42.600777   T T T
32.660595 26.980494 44.020802   T T T
34.080624 25.560467 42.600777   T T T
35.500648 26.980494 44.020802   T T T
36.920673 25.560467 42.600777   T T T
38.340698 26.980494 44.020802   T T T
39.760727 25.560467 42.600777   T T T
41.180752 26.980494 44.020802   T T T
42.600777 25.560467 42.600777   T T T
44.020802 26.980494 44.020802   T T T
45.440830 25.560467 42.600777   T T T
11.360209 28.400518 42.600777   T T T
12.780233 29.820545 44.020802   T T T
14.200259 28.400518 42.600777   T T T
15.620285 29.820545 44.020802   T T T
17.040312 28.400518 42.600777   T T T
18.460339 29.820545 44.020802   T T T
19.880363 28.400518 42.600777   T T T
21.300390 29.820545 44.020802   T T T
22.720415 28.400518 42.600777   T T T
24.140442 29.820545 44.020802   T T T
25.560467 28.400518 42.600777   T T T
26.980494 29.820545 44.020802   T T T
28.400518 28.400518 42.600777   T T T
29.820545 29.820545 44.020802   T T T
31.240570 28.400518 42.600777   T T T
32.660595 29.820545 44.020802   T T T
34.080624 28.400518 42.600777   T T T
35.500648 29.820545 44.020802   T T T
36.920673 28.400518 42.600777   T T T
38.340698 29.820545 44.020802   T T T
39.760727 28.400518 42.600777   T T T
41.180752 29.820545 44.020802   T T T
42.600777 28.400518 42.600777   T T T
44.020802 29.820545 44.020802   T T T
45.440830 28.400518 42.600777   T T T
11.360209 31.240570 42.600777   T T T
12.780233 32.660595 44.020802   T T T
14.200259 31.240570 42.600777   T T T
15.620285 32.660595 44.020802   T T T
17.040312 31.240570 42.600777   T T T
18.460339 32.660595 44.020802   T T T
19.880363 31.240570 42.600777   T T T
21.300390 32.660595 44.020802   T T T
22.720415 31.240570 42.600777   T T T
24.140442 32.660595 44.020802   T T T
25.560467 31.240570 42.600777   T T T
26.980494 32.660595 44.020802   T T T
28.400518 31.240570 42.600777   T T T
29.820545 32.660595 44.020802   T T T
31.240570 31.240570 42.600777   T T T
32.660595 32.660595 44.020802   T T T
34.080624 31.240570 42.600777   T T T
35.500648 32.660595 44.020802   T T T
36.920673 31.240570 42.600777   T T T
38.340698 32.660595 44.020802   T T T
39.760727 31.240570 42.600777   T T T
41.180752 32.660595 44.020802   T T T
42.600777 31.240570 42.600777   T T T
44.020802 32.660595 44.020802   T T T
45.440830 31.240570 42.600777   T T T
11.360209 34.080624 42.600777   T T T
12.780233 35.500648 44.020802   T T T
14.200259 34.080624 42.600777   T T T
15.620285 35.500648 44.020802   T T T
17.040312 34.080624 42.600777   T T T
18.460339 35.500648 44.020802   T T T
19.880363 34.080624 42.600777   T T T
21.300390 35.500648 44.020802   T T T
22.720415 34.080624 42.600777   T T T
24.140442 35.500648 44.020802   T T T
25.560467 34.080624 42.600777   T T T
26.980494 35.500648 44.020802   T T T
28.400518 34.080624 42.600777   T T T
29.820545 35.500648 44.020802   T T T
31.240570 34.080624 42.600777   T T T
32.660595 35.500648 44.020802   T T T
34.080624 34.080624 42.600777   T T T
35.500648 35.500648 44.020802   T T T
36.920673 34.080624 42.600777   T T T
38.340698 35.500648 44.020802   T T T
39.760727 34.080624 42.600777   T T T
41.180752 35.500648 44.020802   T T T
42.600777 34.080624 42.600777   T T T
44.020802 35.500648 44.020802   T T T
45.440830 34.080624 42.600777   T T T
11.360209 36.920673 42.600777   T T T
14.200259 36.920673 42.600777   T T T
15.620285 38.340698 44.020802   T T T
17.040312 36.920673 42.600777   T T T
18.460339 38.340698 44.020802   T T T
19.880363 36.920673 42.600777   T T T
21.300390 38.340698 44.020802   T T T
22.720415 36.920673 42.600777   T T T
24.140442 38.340698 44.020802   T T T
25.560467 36.920673 42.600777   T T T
26.980494 38.340698 44.020802   T T T
28.400518 36.920673 42.600777   T T T
29.820545 38.340698 44.020802   T T T
31.240570 36.920673 42.600777   T T T
32.660595 38.340698 44.020802   T T T
34.080624 36.920673 42.600777   T T T
35.500648 38.340698 44.020802   T T T
36.920673 36.920673 42.600777   T T T
38.340698 38.340698 44.020802   T T T
39.760727 36.920673 42.600777   T T T
41.180752 38.340698 44.020802   T T T
42.600777 36.920673 42.600777   T T T
45.440830 36.920673 42.600777   T T T
14.200259 39.760727 42.600777   T T T
17.040312 39.760727 42.600777   T T T
18.460339 41.180752 44.020802   T T T
19.880363 39.760727 42.600777   T T T
21.300390 41.180752 44.020802   T T T
22.720415 39.760727 42.600777   T T T
24.140442 41.180752 44.020802   T T T
25.560467 39.760727 42.600777   T T T
26.980494 41.180752 44.020802   T T T
28.400518 39.760727 42.600777   T T T
29.820545 41.180752 44.020802   T T T
31.240570 39.760727 42.600777   T T T
32.660595 41.180752 44.020802   T T T
34.080624 39.760727 42.600777   T T T
35.500648 41.180752 44.020802   T T T
36.920673 39.760727 42.600777   T T T
38.340698 41.180752 44.020802   T T T
39.760727 39.760727 42.600777   T T T
42.600777 39.760727 42.600777   T T T
17.040312 42.600777 42.600777   T T T
19.880363 42.600777 42.600777   T T T
21.300390 44.020802 44.020802   T T T
22.720415 42.600777 42.600777   T T T
24.140442 44.020802 44.020802   T T T
25.560467 42.600777 42.600777   T T T
26.980494 44.020802 44.020802   T T T
28.400518 42.600777 42.600777   T T T
29.820545 44.020802 44.020802   T T T
31.240570 42.600777 42.600777   T T T
32.660595 44.020802 44.020802   T T T
34.080624 42.600777 42.600777   T T T
35.500648 44.020802 44.020802   T T T
36.920673 42.600777 42.600777   T T T
39.760727 42.600777 42.600777   T T T
19.880363 45.440830 42.600777   T T T
22.720415 45.440830 42.600777   T T T
25.560467 45.440830 42.600777   T T T
28.400518 45.440830 42.600777   T T T
31.240570 45.440830 42.600777   T T T
34.080624 45.440830 42.600777   T T T
36.920673 45.440830 42.600777   T T T
19.880363 14.200259 45.440830   T T T
21.300390 15.620285 46.860855   T T T
22.720415 14.200259 45.440830   T T T
24.140442 15.620285 46.860855   T T T
25.560467 14.200259 45.440830   T T T
26.980494 15.620285 46.860855   T T T
28.400518 14.200259 45.440830   T T T
29.820545 15.620285 46.860855   T T T
31.240570 14.200259 45.440830   T T T
32.660595 15.620285 46.860855   T T T
34.080624 14.200259 45.440830   T T T
35.500648 15.620285 46.860855   T T T
36.920673 14.200259 45.440830   T T T
17.040312 17.040312 45.440830   T T T
18.460339 18.460339 46.860855   T T T
19.880363 17.040312 45.440830   T T T
21.300390 18.460339 46.860855   T T T
22.720415 17.040312 45.440830   T T T
24.140442 18.460339 46.860855   T T T
25.560467 17.040312 45.440830   T T T
26.980494 18.460339 46.860855   T T T
28.400518 17.040312 45.440830   T T T
29.820545 18.460339 46.860855   T T T
31.240570 17.040312 45.440830   T T T
32.660595 18.460339 46.860855   T T T
34.080624 17.040312 45.440830   T T T
35.500648 18.460339 46.860855   T T T
36.920673 17.040312 45.440830   T T T
38.340698 18.460339 46.860855   T T T
39.760727 17.040312 45.440830   T T T
14.200259 19.880363 45.440830   T T T
15.620285 21.300390 46.860855   T T T
17.040312 19.880363 45.440830   T T T
18.460339 21.300390 46.860855   T T T
19.880363 19.880363 45.440830   T T T
21.300390 21.300390 46.860855   T T T
22.720415 19.880363 45.440830   T T T
24.140442 21.300390 46.860855   T T T
25.560467 19.880363 45.440830   T T T
26.980494 21.300390 46.860855   T T T
28.400518 19.880363 45.440830   T T T
29.820545 21.300390 46.860855   T T T
31.240570 19.880363 45.440830   T T T
32.660595 21.300390 46.860855   T T T
34.080624 19.880363 45.440830   T T T
35.500648 21.300390 46.860855   T T T
36.920673 19.880363 45.440830   T T T
38.340698 21.300390 46.860855   T T T
39.760727 19.880363 45.440830   T T T
41.180752 21.300390 46.860855   T T T
42.600777 19.880363 45.440830   T T T
14.200259 22.720415 45.440830   T T T
15.620285 24.140442 46.860855   T T T
17.040312 22.720415 45.440830   T T T
18.460339 24.140442 46.860855   T T T
19.880363 22.720415 45.440830   T T T
21.300390 24.140442 46.860855   T T T
22.720415 22.720415 45.440830   T T T
24.140442 24.140442 46.860855   T T T
25.560467 22.720415 45.440830   T T T
26.980494 24.140442 46.860855   T T T
28.400518 22.720415 45.440830   T T T
29.820545 24.140442 46.860855   T T T
31.240570 22.720415 45.440830   T T T
32.660595 24.140442 46.860855   T T T
34.080624 22.720415 45.440830   T T T
35.500648 24.140442 46.860855   T T T
36.920673 22.720415 45.440830   T T T
38.340698 24.140442 46.860855   T T T
39.760727 22.720415 45.440830   T T T
41.180752 24.140442 46.860855   T T T
42.600777 22.720415 45.440830   T T T
14.200259 25.560467 45.440830   T T T
15.620285 26.980494 46.860855   T T T
17.040312 25.560467 45.440830   T T T
18.460339 26.980494 46.860855   T T T
19.880363 25.560467 45.440830   T T T
21.300390 26.980494 46.860855   T T T
22.720415 25.560467 45.440830   T T T
24.140442 26.980494 46.860855   T T T
25.560467 25.560467 45.440830   T T T
26.980494 26.980494 46.860855   T T T
28.400518 25.560467 45.440830   T T T
29.820545 26.980494 46.860855   T T T
31.240570 25.560467 45.440830   T T T
32.660595 26.980494 46.860855   T T T
34.080624 25.560467 45.440830   T T T
35.500648 26.980494 46.860855   T T T
36.920673 25.560467 45.440830   T T T
38.340698 26.980494 46.860855   T T T
39.760727 25.560467 45.440830   T T T
41.180752 26.980494 46.860855   T T T
42.600777 25.560467 45.440830   T T T
14.200259 28.400518 45.440830   T T T
15.620285 29.820545 46.860855   T T T
17.040312 28.400518 45.440830   T T T
18.460339 29.820545 46.860855   T T T
19.880363 28.400518 45.440830   T T T
21.300390 29.820545 46.860855   T T T
22.720415 28.400518 45.440830   T T T
24.140442 29.820545 46.860855   T T T
25.560467 28.400518 45.440830   T T T
26.980494 29.820545 46.860855   T T T
28.400518 28.400518 45.440830   T T T
29.820545 29.820545 46.860855   T T T
31.240570 28.400518 45.440830   T T T
32.660595 29.820545 46.860855   T T T
34.080624 28.400518 45.440830   T T T
35.500648 29.820545 46.860855   T T T
36.920673 28.400518 45.440830   T T T
38.340698 29.820545 46.860855   T T T
39.760727 28.400518 45.440830   T T T
41.180752 29.820545 46.860855   T T T
42.600777 28.400518 45.440830   T T T
14.200259 31.240570 45.440830   T T T
15.620285 32.660595 46.860855   T T T
17.040312 31.240570 45.440830   T T T
18.460339 32.660595 46.860855   T T T
19.880363 31.240570 45.440830   T T T
21.300390 32.660595 46.860855   T T T
22.720415 31.240570 45.440830   T T T
24.140442 32.660595 46.860855   T T T
25.560467 31.240570 45.440830   T T T
26.980494 32.660595 46.860855   T T T
28.400518 31.240570 45.440830   T T T
29.820545 32.660595 46.860855   T T T
31.240570 31.240570 45.440830   T T T
32.660595 32.660595 46.860855   T T T
34.080624 31.240570 45.440830   T T T
35.500648 32.660595 46.860855   T T T
36.920673 31.240570 45.440830   T T T
38.340698 32.660595 46.860855   T T T
39.760727 31.240570 45.440830   T T T
41.180752 32.660595 46.860855   T T T
42.600777 31.240570 45.440830   T T T
14.200259 34.080624 45.440830   T T T
15.620285 35.500648 46.860855   T T T
17.040312 34.080624 45.440830   T T T
18.460339 35.500648 46.860855   T T T
19.880363 34.080624 45.440830   T T T
21.300390 35.500648 46.860855   T T T
22.720415 34.080624 45.440830   T T T
24.140442 35.500648 46.860855   T T T
25.560467 34.080624 45.440830   T T T
26.980494 35.500648 46.860855   T T T
28.400518 34.080624 45.440830   T T T
29.820545 35.500648 46.860855   T T T
31.240570 34.080624 45.440830   T T T
32.660595 35.500648 46.860855   T T T
34.080624 34.080624 45.440830   T T T
35.500648 35.500648 46.860855   T T T
36.920673 34.080624 45.440830   T T T
38.340698 35.500648 46.860855   T T T
39.760727 34.080624 45.440830   T T T
41.180752 35.500648 46.860855   T T T
42.600777 34.080624 45.440830   T T T
14.200259 36.920673 45.440830   T T T
17.040312 36.920673 45.440830   T T T
18.460339 38.340698 46.860855   T T T
19.880363 36.920673 45.440830   T T T
21.300390 38.340698 46.860855   T T T
22.720415 36.920673 45.440830   T T T
24.140442 38.340698 46.860855   T T T
25.560467 36.920673 45.440830   T T T
26.980494 38.340698 46.860855   T T T
28.400518 36.920673 45.440830   T T T
29.820545 38.340698 46.860855   T T T
31.240570 36.920673 45.440830   T T T
32.660595 38.340698 46.860855   T T T
34.080624 36.920673 45.440830   T T T
35.500648 38.340698 46.860855   T T T
36.920673 36.920673 45.440830   T T T
38.340698 38.340698 46.860855   T T T
39.760727 36.920673 45.440830   T T T
42.600777 36.920673 45.440830   T T T
17.040312 39.760727 45.440830   T T T
19.880363 39.760727 45.440830   T T T
21.300390 41.180752 46.860855   T T T
22.720415 39.760727 45.440830   T T T
24.140442 41.180752 46.860855   T T T
25.560467 39.760727 45.440830   T T T
26.980494 41.180752 46.860855   T T T
28.400518 39.760727 45.440830   T T T
29.820545 41.180752 46.860855   T T T
31.240570 39.760727 45.440830   T T T
32.660595 41.180752 46.860855   T T T
34.080624 39.760727 45.440830   T T T
35.500648 41.180752 46.860855   T T T
36.920673 39.760727 45.440830   T T T
39.760727 39.760727 45.440830   T T T
19.880363 42.600777 45.440830   T T T
22.720415 42.600777 45.440830   T T T
25.560467 42.600777 45.440830   T T T
28.400518 42.600777 45.440830   T T T
31.240570 42.600777 45.440830   T T T
34.080624 42.600777 45.440830   T T T
36.920673 42.600777 45.440830   T T T
19.880363 17.040312 48.280884   T T T
21.300390 18.460339 49.700909   T T T
22.720415 17.040312 48.280884   T T T
24.140442 18.460339 49.700909   T T T
25.560467 17.040312 48.280884   T T T
26.980494 18.460339 49.700909   T T T
28.400518 17.040312 48.280884   T T T
29.820545 18.460339 49.700909   T T T
31.240570 17.040312 48.280884   T T T
32.660595 18.460339 49.700909   T T T
34.080624 17.040312 48.280884   T T T
35.500648 18.460339 49.700909   T T T
36.920673 17.040312 48.280884   T T T
17.040312 19.880363 48.280884   T T T
18.460339 21.300390 49.700909   T T T
19.880363 19.880363 48.280884   T T T
21.300390 21.300390 49.700909   T T T
22.720415 19.880363 48.280884   T T T
24.140442 21.300390 49.700909   T T T
25.560467 19.880363 48.280884   T T T
26.980494 21.300390 49.700909   T T T
28.400518 19.880363 48.280884   T T T
29.820545 21.300390 49.700909   T T T
31.240570 19.880363 48.280884   T T T
32.660595 21.300390 49.700909   T T T
34.080624 19.880363 48.280884   T T T
35.500648 21.300390 49.700909   T T T
36.920673 19.880363 48.280884   T T T
38.340698 21.300390 49.700909   T T T
39.760727 19.880363 48.280884   T T T
17.040312 22.720415 48.280884   T T T
18.460339 24.140442 49.700909   T T T
19.880363 22.720415 48.280884   T T T
21.300390 24.140442 49.700909   T T T
22.720415 22.720415 48.280884   T T T
24.140442 24.140442 49.700909   T T T
25.560467 22.720415 48.280884   T T T
26.980494 24.140442 49.700909   T T T
28.400518 22.720415 48.280884   T T T
29.820545 24.140442 49.700909   T T T
31.240570 22.720415 48.280884   T T T
32.660595 24.140442 49.700909   T T T
34.080624 22.720415 48.280884   T T T
35.500648 24.140442 49.700909   T T T
36.920673 22.720415 48.280884   T T T
38.340698 24.140442 49.700909   T T T
39.760727 22.720415 48.280884   T T T
17.040312 25.560467 48.280884   T T T
18.460339 26.980494 49.700909   T T T
19.880363 25.560467 48.280884   T T T
21.300390 26.980494 49.700909   T T T
22.720415 25.560467 48.280884   T T T
24.140442 26.980494 49.700909   T T T
25.560467 25.560467 48.280884   T T T
26.980494 26.980494 49.700909   T T T
28.400518 25.560467 48.280884   T T T
29.820545 26.980494 49.700909   T T T
31.240570 25.560467 48.280884   T T T
32.660595 26.980494 49.700909   T T T
34.080624 25.560467 48.280884   T T T
35.500648 26.980494 49.700909   T T T
36.920673 25.560467 48.280884   T T T
38.340698 26.980494 49.700909   T T T
39.760727 25.560467 48.280884   T T T
17.040312 28.400518 48.280884   T T T
18.460339 29.820545 49.700909   T T T
19.880363 28.400518 48.280884   T T T
21.300390 29.820545 49.700909   T T T
22.720415 28.400518 48.280884   T T T
24.140442 29.820545 49.700909   T T T
25.560467 28.400518 48.280884   T T T
26.980494 29.820545 49.700909   T T T
28.400518 28.400518 48.280884   T T T
29.820545 29.820545 49.700909   T T T
31.240570 28.400518 48.280884   T T T
32.660595 29.820545 49.700909   T T T
34.080624 28.400518 48.280884   T T T
35.500648 29.820545 49.700909   T T T
36.920673 28.400518 48.280884   T T T
38.340698 29.820545 49.700909   T T T
39.760727 28.400518 48.280884   T T T
17.040312 31.240570 48.280884   T T T
18.460339 32.660595 49.700909   T T T
19.880363 31.240570 48.280884   T T T
21.300390 32.660595 49.700909   T T T
22.720415 31.240570 48.280884   T T T
24.140442 32.660595 49.700909   T T T
25.560467 31.240570 48.280884   T T T
26.980494 32.660595 49.700909   T T T
28.400518 31.240570 48.280884   T T T
29.820545 32.660595 49.700909   T T T
31.240570 31.240570 48.280884   T T T
32.660595 32.660595 49.700909   T T T
34.080624 31.240570 48.280884   T T T
35.500648 32.660595 49.700909   T T T
36.920673 31.240570 48.280884   T T T
38.340698 32.660595 49.700909   T T T
39.760727 31.240570 48.280884   T T T
17.040312 34.080624 48.280884   T T T
18.460339 35.500648 49.700909   T T T
19.880363 34.080624 48.280884   T T T
21.300390 35.500648 49.700909   T T T
22.720415 34.080624 48.280884   T T T
24.140442 35.500648 49.700909   T T T
25.560467 34.080624 48.280884   T T T
26.980494 35.500648 49.700909   T T T
28.400518 34.080624 48.280884   T T T
29.820545 35.500648 49.700909   T T T
31.240570 34.080624 48.280884   T T T
32.660595 35.500648 49.700909   T T T
34.080624 34.080624 48.280884   T T T
35.500648 35.500648 49.700909   T T T
36.920673 34.080624 48.280884   T T T
38.340698 35.500648 49.700909   T T T
39.760727 34.080624 48.280884   T T T
17.040312 36.920673 48.280884   T T T
19.880363 36.920673 48.280884   T T T
21.300390 38.340698 49.700909   T T T
22.720415 36.920673 48.280884   T T T
24.140442 38.340698 49.700909   T T T
25.560467 36.920673 48.280884   T T T
26.980494 38.340698 49.700909   T T T
28.400518 36.920673 48.280884   T T T
29.820545 38.340698 49.700909   T T T
31.240570 36.920673 48.280884   T T T
32.660595 38.340698 49.700909   T T T
34.080624 36.920673 48.280884   T T T
35.500648 38.340698 49.700909   T T T
36.920673 36.920673 48.280884   T T T
39.760727 36.920673 48.280884   T T T
19.880363 39.760727 48.280884   T T T
22.720415 39.760727 48.280884   T T T
25.560467 39.760727 48.280884   T T T
28.400518 39.760727 48.280884   T T T
31.240570 39.760727 48.280884   T T T
34.080624 39.760727 48.280884   T T T
36.920673 39.760727 48.280884   T T T
